NAME : lhk
TYPE : TSP
DIMENSION : 160
EDGE_WEIGHT_TYPE : EUC_2D
NODE_COORD_SECTION
1 80000 20000
2 65338 15832
3 65141 16245
4 49685 34294
5 57819 34716
6 50923 33836
7 54678 32901
8 34511 24909
9 33037 13346
10 33309 13455
11 35160 17852
12 33529 13913
13 11056 16018
14 19614 25689
15 14782 24725
16 10865 16109
17 11201 15947
18 23378 29812
19 21635 29057
20 15097 38866
21 10653 27127
22 6829 29984
23 9718 33040
24 10713 49936
25 9547 48991
26 16328 40171
27 23378 29812
28 27265 42433
29 27744 38097
30 28306 38245
31 39147 30344
32 31227 40526
33 39147 30344
34 35953 28118
35 45868 46347
36 50923 33836
37 51961 39100
38 54058 38727
39 60958 58332
40 74171 83358
41 77078 83101
42 76502 87993
43 65936 86952
44 62168 88597
45 54533 87840
46 57951 85311
47 53591 90412
48 42256 90096
49 53672 90190
50 50999 91792
51 44427 90094
52 53747 89985
53 41285 90097
54 41601 90232
55 47170 81512
56 41066 81583
57 50453 70980
58 40942 90097
59 47960 77389
60 37151 77397
61 38561 72736
62 33796 81931
63 29813 85680
64 24918 81301
65 29258 83731
66 21726 93653
67 32435 88976
68 21726 93653
69 25481 92449
70 32435 88976
71 42051 79195
72 54555 73356
73 51710 70521
74 41750 67431
75 47136 71008
76 47871 70798
77 57681 63854
78 56309 61501
79 58272 61933
80 60373 63745
81 61338 68997
82 61582 70520
83 49828 87827
84 61083 89993
85 79604 89120
86 86143 80933
87 65490 59949
88 55696 55191
89 56284 53852
90 50902 50236
91 48110 58795
92 31298 61977
93 33501 56105
94 52797 37581
95 45868 46347
96 44831 46767
97 35254 50533
98 35391 50158
99 36436 46880
100 36091 52261
101 34846 55615
102 31227 40526
103 30898 56650
104 12383 46471
105 14446 48139
106 31227 40526
107 19597 53376
108 16272 52864
109 10713 49936
110 10306 50513
111 12348 55778
112 12433 58673
113 8087 63808
114 11876 71677
115 11099 58860
116 9779 75877
117 9899 75093
118 11876 71677
119 12728 71086
120 16658 69530
121 20868 65195
122 22947 69685
123 13496 81515
124 11098 86197
125 15134 85266
126 10865 86308
127 10790 90438
128 10129 89742
129 11665 85926
130 10804 90444
131 15779 92339
132 28469 90110
133 12086 75772
134 25953 71562
135 47136 71008
136 37595 55055
137 41399 66386
138 26997 51541
139 31298 61977
140 20868 65195
141 20491 60632
142 25032 69950
143 27261 70591
144 20868 65195
145 25953 71562
146 42620 53216
147 57963 43341
148 66409 68132
149 72803 64968
150 84499 53581
151 82397 54567
152 66409 68132
153 70989 76774
154 83393 54567
155 73193 60148
156 75809 56130
157 75398 52492
158 76689 48642
159 82463 27988
160 86257 17581
EOF
