NAME : lhk
TYPE : TSP
DIMENSION : 152
EDGE_WEIGHT_TYPE : EUC_2D
NODE_COORD_SECTION
1 80000 20000
2 67666 15172
3 55272 30605
4 59225 25401
5 53126 27755
6 55553 30235
7 48055 36132
8 35063 38879
9 11062 48263
10 10186 48552
11 11451 45832
12 70524 16774
13 51583 44735
14 63050 29926
15 63266 50889
16 63445 74340
17 48537 51441
18 27246 85446
19 22112 72145
20 31931 64588
21 21691 89552
22 27009 90957
23 34164 88800
24 23844 89423
25 10478 90040
26 7585 87778
27 27793 71385
28 10740 74373
29 28187 71078
30 11292 73331
31 10773 73875
32 10517 87911
33 17250 67804
34 10739 74416
35 12368 58203
36 12388 61915
37 11217 70491
38 10872 69606
39 10846 60249
40 19360 64320
41 29940 69986
42 33392 66363
43 30258 60369
44 28734 73495
45 28337 72396
46 27660 71525
47 30848 67784
48 11183 45729
49 10214 45305
50 12840 45269
51 14317 28301
52 19299 37562
53 11857 33477
54 11763 33391
55 11748 32382
56 12888 17821
57 15284 18690
58 14643 18077
59 13216 15904
60 12284 15328
61 35502 22116
62 14069 24655
63 35177 19356
64 35522 21552
65 36726 16374
66 38380 21376
67 37508 23473
68 37867 23426
69 36671 24872
70 25055 44315
71 10653 48830
72 30995 63803
73 32148 43380
74 31025 63794
75 37909 67944
76 41344 65652
77 45984 64209
78 51854 52739
79 54500 66679
80 58584 65236
81 61202 66778
82 61226 67236
83 58028 68945
84 51018 58140
85 63632 74618
86 57784 64132
87 72051 57507
88 47900 51279
89 49083 52565
90 49142 49604
91 54092 40277
92 46572 44931
93 55159 38381
94 48896 49509
95 51151 45502
96 46524 46173
97 38248 42325
98 36610 40045
99 13026 51183
100 20050 39227
101 23238 44677
102 23109 43718
103 11810 48069
104 23773 65688
105 10718 75698
106 16746 77889
107 10730 75654
108 23343 89453
109 17838 89783
110 13584 90038
111 28054 89170
112 26852 89242
113 31863 87077
114 39064 84048
115 37871 86117
116 51347 88304
117 46563 87940
118 48657 88778
119 51347 88304
120 51388 88334
121 55987 82179
122 30787 71765
123 50619 84876
124 48352 84353
125 34600 73080
126 38651 71634
127 38729 73637
128 32961 73726
129 32588 88900
130 34164 88800
131 64740 79330
132 70234 84716
133 70476 85229
134 74944 87553
135 72077 86550
136 72097 86676
137 71636 88204
138 78795 88164
139 80136 88778
140 84890 82338
141 85994 82554
142 86112 80684
143 83825 58761
144 81564 62404
145 75902 55782
146 75020 57200
147 75089 53784
148 76343 45829
149 83485 24989
150 85684 22113
151 86135 17498
152 85458 16764
EOF
