NAME : lhk
TYPE : TSP
DIMENSION : 993
EDGE_WEIGHT_TYPE : EUC_2D
NODE_COORD_SECTION
1 80000 20000
2 13814 91523
3 31375 83422
4 7338 64011
5 4849 31870
6 43777 96501
7 64820 24638
8 33623 38292
9 20028 -3117
10 51397 69830
11 14462 35700
12 27376 39856
13 50687 92274
14 25691 103055
15 -6980 73211
16 18431 98247
17 37970 81052
18 14608 90253
19 67350 81123
20 55047 45787
21 24582 103027
22 36008 65914
23 39930 87209
24 53978 100058
25 55968 24216
26 98384 88149
27 32494 23719
28 51444 34432
29 25042 102673
30 78195 32523
31 41433 65204
32 8245 79755
33 17192 28408
34 77948 39186
35 20021 56240
36 60443 59613
37 27855 99745
38 35562 45957
39 26371 34173
40 5928 93691
41 55259 84998
42 33820 74615
43 69696 102158
44 52683 42503
45 16505 87810
46 52578 41463
47 6648 36521
48 8251 51922
49 17784 83121
50 35887 52377
51 22979 77253
52 58214 81696
53 78127 95376
54 41203 93661
55 42305 63298
56 53908 25492
57 35249 67837
58 5377 42368
59 20195 85658
60 25367 56349
61 32821 87933
62 2126 16768
63 51297 96974
64 41411 42595
65 33551 16246
66 22711 41473
67 39705 37468
68 69266 63216
69 60248 69412
70 49017 43210
71 64394 53428
72 64844 71009
73 41958 95307
74 34090 95735
75 10903 29156
76 2773 77811
77 29327 80334
78 -445 64934
79 24937 50423
80 24035 49527
81 37691 81823
82 17924 64886
83 46301 88004
84 74667 76115
85 54129 63763
86 56928 51816
87 6164 29501
88 4925 38402
89 8377 81357
90 37906 58513
91 12215 83167
92 45067 66485
93 24240 97138
94 16577 86397
95 61558 68656
96 12554 86241
97 29326 102615
98 2689 71839
99 96913 41690
100 31291 67592
101 16773 46079
102 54877 60959
103 69575 55635
104 70458 5848
105 26294 61047
106 48802 102581
107 16063 93891
108 90680 65185
109 3885 84031
110 53040 63747
111 69994 65355
112 33298 9797
113 52869 71977
114 17370 74716
115 22204 60895
116 17013 94171
117 -4114 45601
118 56210 43723
119 55234 90152
120 17424 60314
121 26207 93452
122 30219 24496
123 10419 56212
124 13861 39916
125 37029 76781
126 22072 25728
127 49634 72818
128 39025 57381
129 4181 46347
130 46467 88575
131 16986 62480
132 16966 60937
133 18480 68225
134 -869 29679
135 41376 69012
136 80755 93727
137 83830 44554
138 30319 69832
139 8018 95821
140 38414 88840
141 50406 85012
142 37183 75871
143 16819 48646
144 69853 49972
145 34189 81370
146 70563 97662
147 29104 95716
148 33484 51410
149 26040 38051
150 74102 97818
151 35043 83159
152 31964 41407
153 82501 61318
154 4757 91850
155 10131 45393
156 43043 42582
157 55555 87709
158 10709 51935
159 63748 91381
160 77012 85424
161 34804 39802
162 54331 51021
163 20234 73651
164 39391 71909
165 50560 24971
166 45019 98601
167 914 58970
168 34152 76964
169 12276 80651
170 646 85590
171 93529 55983
172 33296 65166
173 45039 93199
174 66468 64361
175 21613 41946
176 38084 61310
177 68382 12892
178 61790 93021
179 -1404 87035
180 54997 93879
181 34578 43517
182 32506 107264
183 14178 57818
184 18327 89316
185 26164 81912
186 53175 98340
187 52344 53725
188 -4671 7910
189 47502 53008
190 29904 84235
191 66928 56581
192 26202 35011
193 10350 74572
194 42099 80297
195 41530 44790
196 70672 51575
197 11277 55631
198 55198 45324
199 83347 55961
200 73 92756
201 14315 98306
202 70130 54942
203 57895 91357
204 2603 82665
205 78977 76538
206 21419 42480
207 40900 101279
208 1538 80912
209 57242 63332
210 44036 26462
211 52905 53111
212 12579 12911
213 8821 39403
214 10236 94265
215 10587 52164
216 42277 78615
217 48603 55307
218 67447 38783
219 -4520 52297
220 8234 59839
221 15611 71126
222 36633 30365
223 12281 50080
224 36226 84144
225 -2009 85264
226 49409 71368
227 29169 72003
228 22366 94063
229 13470 42582
230 66107 77939
231 38548 90300
232 45454 93267
233 66609 44216
234 19798 59378
235 2452 55223
236 43916 60151
237 4438 95237
238 25896 56129
239 57270 59342
240 50944 86594
241 5302 81254
242 39347 92822
243 94946 56122
244 90042 14728
245 18964 83596
246 50366 86697
247 32730 21671
248 9649 87747
249 46713 79398
250 23639 85845
251 44921 33426
252 80046 95306
253 30078 71890
254 34031 89736
255 21122 11763
256 689 70040
257 32037 89195
258 47579 24989
259 3595 22424
260 54123 87307
261 84580 5348
262 28994 25224
263 53143 51462
264 12850 81428
265 35494 64841
266 34192 106846
267 14696 74256
268 28044 62500
269 3185 30697
270 30140 51330
271 36447 79010
272 33376 98764
273 14899 66874
274 64390 99259
275 80185 39845
276 22645 76150
277 47244 42577
278 10904 73454
279 27146 39034
280 18776 48656
281 55061 78044
282 47743 48236
283 53798 62034
284 4192 33399
285 25440 23252
286 68475 100120
287 58761 55662
288 46020 5994
289 16980 87742
290 42472 17623
291 70342 83024
292 37172 65289
293 32932 86734
294 67855 57950
295 41673 79601
296 59202 20749
297 27942 84007
298 67391 84091
299 2970 67923
300 11517 22249
301 1571 79093
302 3083 86496
303 30144 55004
304 10483 58820
305 7 94494
306 46652 87022
307 25123 100518
308 31651 28821
309 35249 64788
310 46841 93183
311 43472 15758
312 93912 77556
313 7128 43002
314 50058 86796
315 62652 49223
316 61035 78244
317 6365 90752
318 55304 76130
319 69784 96762
320 47725 81510
321 54786 89333
322 4051 76729
323 87612 89730
324 65227 32699
325 28744 45334
326 11175 84355
327 16245 78144
328 34847 74493
329 9192 43492
330 24298 69288
331 4829 49716
332 11978 29906
333 74398 66404
334 16236 71148
335 66692 66185
336 56503 69624
337 15103 54470
338 38036 20480
339 18236 64852
340 20292 71259
341 65486 64780
342 1415 54885
343 56431 46354
344 53378 94315
345 58728 88901
346 88824 17186
347 4714 75585
348 6072 68975
349 11585 17816
350 24528 63987
351 32395 81185
352 36414 3686
353 6112 47096
354 65793 86874
355 27590 25331
356 53180 34664
357 48399 52001
358 68771 54894
359 51873 38799
360 25148 74032
361 14328 80363
362 17108 73551
363 -1286 11187
364 38479 17963
365 3237 100448
366 40237 56962
367 4543 15765
368 54458 91869
369 15159 99237
370 46332 78765
371 39058 52679
372 -7906 63992
373 93449 80470
374 5080 46457
375 7125 79169
376 44743 105682
377 1768 71618
378 64607 36160
379 66299 78056
380 41293 26076
381 2268 98085
382 1701 65776
383 33382 55663
384 81749 67736
385 10125 44259
386 85026 67920
387 10893 91886
388 73700 45559
389 19945 39983
390 52243 88442
391 39271 63216
392 23267 42764
393 35611 94282
394 63810 73792
395 28497 87213
396 62776 86280
397 59313 55064
398 22135 52224
399 21424 61466
400 12495 83720
401 10414 74306
402 -3796 90326
403 20353 21852
404 25356 45339
405 35364 74071
406 5229 94890
407 50989 88379
408 34129 3026
409 46026 85462
410 31216 93871
411 47023 66942
412 21025 66101
413 14331 12602
414 33810 57706
415 32671 48044
416 52547 96161
417 29024 87879
418 76861 75059
419 15895 86612
420 45616 28919
421 77987 63550
422 36710 33264
423 15983 67061
424 19476 39767
425 27159 96669
426 67292 53034
427 860 81562
428 2904 68850
429 25424 89888
430 16730 70642
431 20260 103136
432 21053 80195
433 53379 73244
434 1584 80332
435 51838 94743
436 7708 99210
437 8196 81942
438 40913 82179
439 25810 43664
440 20475 21435
441 67293 69898
442 21355 104535
443 25572 90146
444 26769 75481
445 -347 89572
446 1658 77153
447 12552 92028
448 -1093 92923
449 39483 96888
450 47038 89981
451 91054 72059
452 18674 58377
453 45144 38025
454 53654 66209
455 39922 75641
456 9340 33179
457 19321 96931
458 7057 77638
459 62722 37784
460 43175 75753
461 69241 71461
462 48257 49091
463 13470 97606
464 3848 43639
465 64928 92336
466 69196 82972
467 71683 35308
468 39776 27499
469 53976 64892
470 23750 81789
471 31823 102378
472 38921 58710
473 54588 53446
474 86865 88103
475 19904 27083
476 27659 47527
477 20064 47709
478 64432 82476
479 66735 53874
480 14253 75773
481 40646 39979
482 71362 86907
483 14078 66597
484 95793 20057
485 52497 75986
486 56308 57758
487 32135 34485
488 15951 89459
489 13410 15961
490 -4636 49011
491 19512 88003
492 27129 107526
493 53331 57299
494 35132 61061
495 73752 91783
496 18622 86203
497 13314 44595
498 92077 50063
499 52025 60175
500 2061 34297
501 15415 73475
502 23301 69573
503 12711 69275
504 14012 74329
505 72035 21315
506 14774 41152
507 83092 67781
508 21591 60891
509 39940 44386
510 61199 64564
511 25087 46222
512 49687 96374
513 33735 41711
514 44332 70069
515 1073 28897
516 64771 69801
517 50009 93966
518 -1259 73588
519 39325 -1006
520 59665 55986
521 90097 34294
522 13403 98885
523 33782 53019
524 43614 58592
525 20187 72688
526 21545 37824
527 24554 78128
528 7407 62652
529 83626 73162
530 33264 44483
531 43908 91170
532 -4092 64438
533 54123 92441
534 48601 59651
535 13640 49297
536 23575 37261
537 56835 91536
538 23650 74471
539 60811 50603
540 40505 86308
541 45349 79113
542 50409 105954
543 16230 56054
544 28100 47101
545 75638 98830
546 26668 54783
547 6606 79827
548 12337 84742
549 42995 86647
550 21950 41321
551 30810 80780
552 9826 87279
553 20939 62958
554 74593 45485
555 4185 79015
556 46174 38286
557 9915 74366
558 18960 86864
559 41851 61623
560 45525 103353
561 14891 70411
562 34432 78051
563 42899 71585
564 43579 78925
565 44079 70656
566 11489 55129
567 38059 45722
568 62228 84583
569 16849 98078
570 40758 94425
571 4507 79742
572 28469 81746
573 12068 37101
574 43382 12747
575 31102 78852
576 65328 84444
577 41688 60515
578 53657 69419
579 21740 78648
580 77771 75289
581 69788 97171
582 56623 8397
583 53522 67111
584 71014 53144
585 65974 89268
586 8098 92811
587 49297 30036
588 23464 71257
589 10868 13776
590 10864 59712
591 88894 35964
592 34438 78750
593 72883 46741
594 21653 97710
595 63808 51535
596 65515 63769
597 31530 66305
598 49601 52445
599 60277 22464
600 27425 71285
601 22007 71676
602 22035 68977
603 22015 27866
604 33303 55069
605 20375 73017
606 49909 73144
607 54587 41330
608 -5286 64371
609 27915 83230
610 73081 39614
611 19098 101076
612 27254 90248
613 19673 25293
614 34140 102055
615 48272 83219
616 6165 74364
617 12327 41209
618 44808 73167
619 43574 89276
620 43101 46507
621 67801 97698
622 47239 46140
623 73647 80997
624 57143 48376
625 60464 100875
626 58512 63259
627 35017 22207
628 97240 22153
629 9853 82929
630 8889 11693
631 14227 68075
632 27915 95856
633 50394 73358
634 24677 53908
635 58653 38386
636 22597 76320
637 39569 85429
638 7651 89793
639 31382 89154
640 461 84153
641 31620 54807
642 21094 26575
643 46339 81470
644 24303 18042
645 63238 45627
646 41583 68962
647 4845 4269
648 55325 63983
649 77143 80889
650 41789 85877
651 65268 63695
652 19357 87822
653 11241 44432
654 43611 17369
655 62254 66700
656 19207 43161
657 67666 59370
658 6842 74000
659 17129 84261
660 49598 80425
661 92744 79669
662 16373 20312
663 34395 87698
664 22501 40766
665 26442 44729
666 11185 65065
667 75776 84683
668 -2430 73794
669 58603 57079
670 34526 6305
671 72372 45004
672 52060 76814
673 33334 84576
674 5146 22471
675 9302 13178
676 62404 40679
677 49264 59012
678 12168 52577
679 -2335 84042
680 22964 32808
681 24929 70560
682 55769 36587
683 12263 18260
684 39914 64752
685 84422 71433
686 84972 93719
687 8256 69346
688 32440 46398
689 28703 42402
690 28419 81339
691 56501 93774
692 19715 61479
693 38977 39141
694 13337 86181
695 7234 66352
696 15830 80667
697 24026 89834
698 30085 86987
699 17181 52291
700 9223 83217
701 8038 28647
702 18694 75197
703 22280 30041
704 14246 56260
705 46404 14655
706 23023 62080
707 37700 43877
708 36574 101403
709 4692 64064
710 28375 34909
711 3809 32541
712 6531 86425
713 13162 95315
714 46130 94758
715 24022 101367
716 45569 63068
717 50821 41797
718 12088 71424
719 1860 79544
720 1813 88378
721 33629 71025
722 78267 4931
723 -6827 3275
724 32998 42825
725 38717 84630
726 82832 81524
727 26051 75454
728 66194 70580
729 -300 85096
730 27272 65429
731 29192 77065
732 13824 43744
733 35679 55541
734 36291 63013
735 10520 65291
736 18719 56376
737 6381 94037
738 57499 95231
739 48281 101729
740 16978 71450
741 81126 75086
742 1766 16435
743 78018 98132
744 52359 65097
745 69613 72123
746 81310 41961
747 51281 98408
748 7994 68836
749 22527 38987
750 6967 48343
751 13621 96743
752 53086 31848
753 40703 108499
754 28836 95587
755 64098 93833
756 44128 82368
757 33835 56381
758 26839 73238
759 24188 50054
760 5302 86316
761 12775 63944
762 25760 91853
763 58053 65509
764 47904 88925
765 18155 59394
766 33216 70437
767 47066 97336
768 61984 61160
769 24000 91871
770 46931 81509
771 14001 52061
772 16678 52817
773 26684 66472
774 30386 76441
775 47420 94916
776 72819 81473
777 7405 96397
778 53174 19475
779 36432 47961
780 50720 65215
781 4455 77151
782 53475 33825
783 51983 79637
784 41237 42699
785 5721 58505
786 40157 28340
787 24990 92748
788 31198 24608
789 21912 55565
790 23767 72014
791 35054 40012
792 59086 58475
793 10790 87868
794 60021 49590
795 9496 20411
796 20723 88114
797 16610 71778
798 20039 41314
799 52486 56994
800 3951 71803
801 58975 76845
802 59763 71193
803 47030 77504
804 13939 90234
805 50614 57247
806 4404 46316
807 39969 73352
808 39884 90885
809 23598 101017
810 28944 64573
811 60787 52808
812 40480 37634
813 4453 11700
814 76555 83070
815 49299 91832
816 12512 88410
817 55358 80974
818 61201 90866
819 74770 78055
820 63812 24433
821 85809 97105
822 62190 29052
823 42087 27245
824 62514 92305
825 25982 19056
826 15503 76278
827 59142 80635
828 3146 94965
829 56192 36145
830 18038 29465
831 5582 84807
832 55610 23328
833 56576 80090
834 25017 79301
835 38284 25300
836 92309 38661
837 15280 31436
838 71902 75954
839 82814 59526
840 24372 51310
841 38749 83589
842 2236 46954
843 64557 49848
844 45061 50620
845 49965 41341
846 71037 90149
847 22399 68317
848 58840 78675
849 50112 41990
850 4492 48893
851 70410 60699
852 54477 90603
853 77241 69771
854 39188 38883
855 72776 93663
856 55381 71425
857 60321 94810
858 50015 83480
859 29848 48693
860 21338 96961
861 7426 82689
862 54194 80760
863 39785 39673
864 14669 35030
865 72252 88397
866 53820 37295
867 40050 93770
868 68891 77757
869 4759 94111
870 29830 33595
871 56752 45141
872 16169 90297
873 22880 80442
874 50981 25999
875 43863 98838
876 55617 40059
877 24896 48148
878 37547 91514
879 24261 74713
880 13449 76298
881 52584 91592
882 5457 1604
883 52315 98545
884 32210 12380
885 98446 56670
886 24584 91807
887 25880 83750
888 55689 84572
889 15569 71415
890 89396 84618
891 1463 88075
892 37752 45779
893 17005 83799
894 79205 89758
895 38548 78958
896 48671 80753
897 54848 90658
898 23009 55241
899 -2783 31789
900 24922 14069
901 69051 68781
902 17727 56440
903 29238 19158
904 32984 55839
905 62616 75561
906 2196 80285
907 51805 44437
908 52878 62391
909 19509 46888
910 3934 49703
911 44675 74746
912 63490 105327
913 24654 59218
914 33878 46016
915 866 92059
916 22711 26741
917 9967 78807
918 47837 39015
919 27442 84621
920 36738 85843
921 77382 49119
922 43378 83334
923 36324 57665
924 45377 53375
925 13981 72357
926 6573 63702
927 68849 48145
928 27574 68429
929 87990 98742
930 27994 57219
931 49990 32407
932 52480 81588
933 77690 43456
934 19327 93709
935 39238 30517
936 46091 33990
937 11635 58061
938 58992 77265
939 17161 50875
940 4111 66585
941 51632 82159
942 81368 51984
943 73601 53862
944 21669 33745
945 -1333 79611
946 49739 47492
947 31196 74245
948 51354 86674
949 -597 67221
950 8369 44964
951 25106 83038
952 86114 51198
953 53538 91211
954 -1432 85008
955 28934 78877
956 -774 84517
957 27349 52328
958 30424 60047
959 16320 42109
960 65103 27284
961 33814 100599
962 46519 94642
963 67782 72717
964 8579 22359
965 61075 66095
966 18750 66119
967 7474 63048
968 88738 48378
969 57952 69833
970 5701 92032
971 10698 66248
972 32662 75336
973 11866 56141
974 9251 96070
975 35008 88412
976 65241 64257
977 42211 82327
978 84323 59441
979 56189 46603
980 85108 8472
981 56374 91152
982 30237 55027
983 11396 87502
984 84975 100157
985 62157 91927
986 4981 39092
987 56186 63381
988 58796 82838
989 6004 103025
990 34845 44682
991 13807 40403
992 7580 69941
993 56544 96787
EOF
