NAME : lhk
TYPE : TSP
DIMENSION : 116
EDGE_WEIGHT_TYPE : EUC_2D
NODE_COORD_SECTION
1 95000 50000
2 79324 56231
3 74361 60392
4 76411 68988
5 68003 69211
6 67420 74068
7 70445 82551
8 73690 94015
9 68717 95187
10 66372 97633
11 61658 95260
12 62408 86887
13 41621 17858
14 57236 82735
15 52914 70331
16 50472 76999
17 53889 71746
18 52914 70331
19 54848 70535
20 52914 70331
21 43715 65128
22 16808 7640
23 48809 89744
24 41172 91001
25 30451 94220
26 21187 93642
27 20371 91047
28 15142 90824
29 14113 92202
30 6429 93393
31 386 97070
32 1992 92683
33 2218 90858
34 2227 85231
35 2679 81029
36 3532 79566
37 16459 73916
38 21621 72325
39 24986 73928
40 32482 78344
41 34885 76348
42 35977 71875
43 37028 66027
44 37851 62696
45 29929 57662
46 49956 31900
47 20325 56704
48 17503 61497
49 8748 58957
50 3800 59925
51 5209 52882
52 6050 48209
53 5951 47902
54 11626 36785
55 10350 29740
56 10037 27903
57 4927 25418
58 7402 20272
59 3504 12799
60 4670 4612
61 11413 4235
62 39292 77179
63 18136 12324
64 19714 13630
65 24495 13716
66 31160 8750
67 64629 14328
68 34269 14637
69 33925 14830
70 34234 5665
71 36303 5072
72 47223 11410
73 55253 1725
74 60538 13135
75 63095 11005
76 50936 24565
77 58669 79146
78 41102 17935
79 48048 82416
80 74825 15079
81 74111 4924
82 71183 13939
83 29541 9431
84 76332 26437
85 71547 29233
86 72196 35957
87 72922 35896
88 72932 36094
89 66864 35572
90 61608 35111
91 56904 36517
92 24890 53163
93 52969 35449
94 47478 36863
95 36782 38647
96 38489 29829
97 34760 29864
98 32384 25939
99 29812 25814
100 25494 28694
101 21400 30628
102 24436 35402
103 26218 40236
104 28411 42281
105 39253 40930
106 41844 36950
107 42762 48852
108 45297 49977
109 49304 49211
110 52357 37748
111 56058 49802
112 56855 50946
113 58027 51941
114 60622 51593
115 69288 50289
116 77640 49601
EOF
