NAME : lhk
TYPE : TSP
DIMENSION : 62
EDGE_WEIGHT_TYPE : EUC_2D
NODE_COORD_SECTION
1 1137357 1101624
2 1114563 1117123
3 1054937 1109095
4 968699 1101577
5 872163 1078163
6 763689 1054151
7 728082 1046269
8 654186 1003290
9 565693 960574
10 459739 894670
11 342701 820344
12 335973 815451
13 542657 685769
14 489700 630651
15 420977 613759
16 318018 615760
17 310833 674389
18 242336 723451
19 194534 676994
20 181626 602915
21 76660 599812
22 25338 530858
23 -96 419289
24 9969 291332
25 23254 121025
26 13479 48511
27 232835 720942
28 358473 840003
29 498970 907039
30 845804 1071321
31 1057327 918459
32 997043 780291
33 834390 603100
34 1038366 525529
35 1018032 85902
36 116521 35069
37 43714 10680
38 324779 38291
39 433567 43990
40 535644 47722
41 656314 51644
42 790025 55780
43 890848 58948
44 967782 69683
45 988707 157934
46 1004338 296801
47 1011819 401990
48 990746 457341
49 932864 549294
50 823848 565136
51 698457 583343
52 671206 588576
53 730309 637444
54 888521 686545
55 1003703 707817
56 1035171 694127
57 1058133 750497
58 1067847 808119
59 1078766 857207
60 1076259 872962
61 1102910 966375
62 1119296 1027709
EOF
