NAME : lhk
TYPE : TSP
DIMENSION : 993
EDGE_WEIGHT_TYPE : EUC_2D
NODE_COORD_SECTION
1 80000 20000
2 6065 85658
3 27570 83974
4 9244 55858
5 -4211 30796
6 44317 100608
7 70624 25614
8 34697 50493
9 20965 8489
10 54348 80159
11 10830 37867
12 21303 33355
13 55487 83360
14 15257 103776
15 13511 67087
16 9911 93042
17 24898 86940
18 10861 85482
19 64309 72966
20 45626 32893
21 35326 89378
22 36206 73612
23 30018 92110
24 62381 92241
25 68275 19479
26 91384 97025
27 45599 15128
28 54102 31010
29 24052 104644
30 78055 45022
31 36789 55225
32 9372 84761
33 16354 33444
34 86159 36267
35 22001 61817
36 58770 55391
37 24342 103716
38 33149 47691
39 20413 39992
40 4777 92215
41 51096 97453
42 22282 88440
43 55705 91182
44 68852 44741
45 11899 95399
46 70002 47511
47 6629 40027
48 -5451 48941
49 12608 82456
50 29437 41539
51 15251 88758
52 73654 82085
53 66264 91796
54 50518 93342
55 47293 63724
56 57466 27922
57 40432 68500
58 18644 48232
59 21978 91458
60 26983 53231
61 26150 70699
62 9131 6986
63 56455 85116
64 61159 46793
65 23621 18774
66 21832 31474
67 54477 40656
68 66613 69765
69 70519 71721
70 47855 46651
71 60758 45145
72 69745 83789
73 34164 92268
74 28436 90445
75 -7871 25121
76 -5615 72209
77 27570 88220
78 1183 55997
79 13082 44579
80 20749 66915
81 35693 78766
82 24829 71506
83 41064 84931
84 80098 71560
85 45672 60824
86 63320 58499
87 -716 40426
88 16758 40107
89 14625 78023
90 38617 58391
91 -5363 83916
92 49572 83984
93 39676 92050
94 16717 89261
95 52074 73851
96 10185 94038
97 25984 100424
98 10160 66110
99 95038 32700
100 21894 68806
101 4717 55138
102 38548 58677
103 69810 55647
104 58825 7736
105 44610 56628
106 47383 97960
107 3298 93889
108 96790 46784
109 16901 84904
110 52214 68325
111 72770 65742
112 26890 23647
113 59117 72159
114 20984 68781
115 6838 60386
116 12496 102426
117 -6559 58926
118 64149 50372
119 57299 90234
120 12816 71999
121 29486 91516
122 23173 30325
123 3988 55124
124 10166 46238
125 32177 78011
126 21436 35226
127 41762 82509
128 46866 49113
129 613 37739
130 40368 79475
131 14746 61388
132 19439 64908
133 23908 61163
134 16189 31757
135 46193 79142
136 70126 100532
137 92475 45790
138 25846 61444
139 14652 100646
140 42338 99900
141 53867 78524
142 35494 87374
143 14681 43456
144 66421 48291
145 46795 69227
146 66353 94138
147 40341 83237
148 36966 52579
149 22334 48578
150 65556 97794
151 26592 91802
152 31531 40484
153 71784 67559
154 -1865 90906
155 1115 52687
156 37024 48470
157 40986 104131
158 8494 46857
159 74157 101744
160 66544 82600
161 37938 29097
162 52561 62236
163 16473 70667
164 40276 59771
165 56295 30825
166 38290 101422
167 2774 55031
168 30859 79536
169 13024 77642
170 213 76471
171 95219 60961
172 37239 79662
173 45930 84394
174 54531 68686
175 11258 59687
176 39933 70042
177 55098 15332
178 64466 87212
179 -1912 78191
180 59682 83770
181 39674 49097
182 39456 98032
183 19317 51117
184 21873 90051
185 8082 73256
186 54666 93956
187 57647 56085
188 -10440 21079
189 59268 50845
190 42197 84067
191 72244 64326
192 37908 34669
193 18100 68742
194 51521 88170
195 39681 48077
196 77426 48859
197 13165 56349
198 48818 39445
199 94705 56721
200 1319 87818
201 8973 99691
202 73322 66483
203 57600 92015
204 -149 86725
205 77718 70526
206 21609 39657
207 43156 88907
208 3429 71916
209 58580 73138
210 54370 29967
211 46911 48629
212 8910 9282
213 1437 42476
214 1085 95917
215 5458 61610
216 39692 82352
217 49870 58863
218 59108 32555
219 5012 57422
220 9834 61293
221 20469 71763
222 22161 29494
223 11846 45823
224 38728 88066
225 -3167 75971
226 31540 67392
227 37592 71139
228 10086 93365
229 18063 37464
230 55870 76791
231 44714 89569
232 36270 91329
233 70492 40603
234 29544 51498
235 6718 60564
236 42049 57134
237 1 91813
238 35264 46880
239 49797 64966
240 37956 97562
241 12648 89637
242 33185 79533
243 81588 54176
244 97731 21908
245 19989 83333
246 54744 95157
247 28923 24152
248 6411 100069
249 55624 77388
250 12753 90579
251 42203 30853
252 72994 107267
253 35307 74581
254 24191 83061
255 16821 20481
256 4888 58482
257 33756 84344
258 34233 26709
259 -3233 25700
260 62651 84766
261 79290 5416
262 37504 25188
263 50235 51918
264 6777 80869
265 41531 58418
266 35230 99995
267 22706 78234
268 37400 67974
269 14286 29567
270 27994 45547
271 33041 79306
272 33583 91106
273 9517 69945
274 64999 84064
275 79869 40918
276 19415 63955
277 42813 51856
278 3113 73939
279 31174 31845
280 9968 57442
281 48727 71414
282 37044 54259
283 48785 63818
284 2867 32237
285 25607 17364
286 73049 97562
287 56224 54608
288 38832 11031
289 16632 90971
290 44999 35143
291 60250 72139
292 32907 66114
293 39688 87488
294 58290 60930
295 46026 72505
296 69274 29041
297 18307 79690
298 64815 83126
299 5312 71779
300 7896 32742
301 -7035 80958
302 9715 88588
303 28266 52133
304 10507 55859
305 8575 99559
306 52952 92437
307 32003 95915
308 24481 30066
309 37828 68961
310 41480 96600
311 35765 24847
312 91848 77217
313 5768 42605
314 54257 92070
315 72688 41434
316 56390 74092
317 3052 82931
318 51898 80705
319 74051 97513
320 52374 78446
321 42927 90032
322 16455 82836
323 86864 87970
324 60111 34791
325 20222 63470
326 11048 77174
327 24798 83500
328 24483 71692
329 1682 37675
330 23046 62262
331 4479 38810
332 11421 15933
333 79952 59131
334 27146 80679
335 77509 63655
336 56340 81906
337 16497 45454
338 38426 15224
339 8002 72105
340 14147 74972
341 65944 63761
342 11187 43099
343 45585 50454
344 45690 88792
345 46599 106274
346 97717 24865
347 9298 73936
348 2198 57552
349 16949 21808
350 32879 63502
351 41707 83603
352 38405 20011
353 11276 44599
354 73347 90444
355 34548 21151
356 58706 40096
357 36222 43789
358 61008 43669
359 68001 42098
360 30171 68541
361 26855 80331
362 16086 72540
363 -500 26312
364 26842 11005
365 13892 85074
366 41819 75447
367 14797 18957
368 65813 92181
369 20710 82503
370 65478 75212
371 43150 57228
372 10007 72581
373 89913 89230
374 6134 47564
375 9311 77063
376 34823 95954
377 18125 59309
378 50533 42452
379 66735 73231
380 33075 28625
381 6020 87449
382 7506 68301
383 23480 59259
384 76286 66632
385 7770 40402
386 81441 69198
387 7257 89369
388 82162 50399
389 25632 31225
390 38612 94976
391 24443 61652
392 23227 49884
393 31530 93434
394 64634 56341
395 43202 94699
396 61334 88388
397 56788 53784
398 26516 42007
399 19742 68013
400 5787 90201
401 14182 65474
402 11998 93623
403 6351 30522
404 17210 53344
405 37340 64001
406 5257 94852
407 49044 87452
408 37619 13991
409 48584 85943
410 20286 90530
411 52393 63949
412 17141 65472
413 4721 19988
414 34097 53750
415 25087 40377
416 53123 82637
417 50716 92369
418 79568 78222
419 14427 84537
420 51904 21053
421 61866 54215
422 48474 36346
423 22463 62050
424 7544 32784
425 25191 80449
426 83210 47510
427 1852 81195
428 595 67763
429 30064 84986
430 13861 73606
431 26060 100051
432 18898 69685
433 57315 70559
434 -2703 76002
435 55633 98792
436 10904 93625
437 17744 78980
438 30851 89505
439 16666 41781
440 23957 22121
441 57432 57345
442 23172 93373
443 15222 92082
444 17003 80443
445 -4961 81568
446 8340 68832
447 10954 100493
448 6451 87310
449 37058 101801
450 50388 92495
451 101279 66140
452 18645 55152
453 47254 52988
454 50783 67032
455 37789 76361
456 5082 24652
457 26790 95115
458 18824 81395
459 51957 39964
460 39402 61756
461 61967 64310
462 35283 48207
463 20474 86750
464 7371 48597
465 64953 94640
466 69487 84419
467 65806 44699
468 37572 28102
469 57475 68884
470 28604 77658
471 30228 90909
472 44815 60315
473 47472 48716
474 87811 89263
475 22114 30253
476 27654 45228
477 11130 34174
478 57060 84931
479 59120 60393
480 12878 66084
481 40245 33081
482 69434 83054
483 16350 67527
484 101001 12499
485 48036 73424
486 60660 64365
487 22909 39714
488 18216 77755
489 23890 1497
490 15161 51057
491 21669 84830
492 15618 99776
493 52858 47056
494 22826 66401
495 80997 100208
496 23252 84884
497 26145 44447
498 94917 56363
499 46217 53919
500 5935 31180
501 12228 77513
502 33896 71017
503 9297 61702
504 13140 81959
505 70713 17209
506 2954 47358
507 89784 66591
508 32408 57305
509 20686 48522
510 69700 82049
511 23674 62309
512 56728 99824
513 44213 47962
514 50234 73373
515 2500 30544
516 59225 64658
517 52278 85265
518 -8091 63797
519 50840 8486
520 49792 53170
521 89367 37201
522 18995 92840
523 41906 49384
524 36663 67497
525 16183 63695
526 31985 45984
527 34146 72802
528 6783 54536
529 73730 70332
530 42751 32598
531 51098 91629
532 6132 53013
533 41289 91274
534 35812 53431
535 10715 47615
536 36056 42994
537 44671 93770
538 25453 72665
539 60888 60871
540 31509 87057
541 42863 65359
542 47064 100270
543 5899 57196
544 26323 46376
545 68884 94409
546 26995 55235
547 4178 89956
548 1728 86326
549 45365 87576
550 34308 38457
551 14316 81854
552 13017 77500
553 23981 67631
554 73510 49944
555 -8583 84070
556 45793 30731
557 5931 83887
558 13024 89557
559 40206 60669
560 40936 96169
561 16597 83302
562 41112 82151
563 44631 79190
564 47388 71237
565 41972 81096
566 18881 61502
567 38729 45101
568 60918 78309
569 15487 85776
570 40966 100878
571 -2935 89249
572 31212 73619
573 6175 30818
574 37724 24909
575 30356 68685
576 57778 88512
577 41211 58844
578 52383 58361
579 24091 80789
580 70662 69033
581 75276 99328
582 57920 20398
583 46368 74601
584 75399 56126
585 54363 95706
586 3988 93521
587 45416 29165
588 26175 66715
589 13528 19820
590 2263 64545
591 87454 30891
592 31964 69534
593 74643 42640
594 16841 94682
595 64823 39041
596 59553 72298
597 24673 64504
598 54592 57401
599 60736 30759
600 21985 57235
601 31287 70867
602 21710 56747
603 23020 26190
604 30299 55579
605 34213 80494
606 54720 74898
607 65375 49243
608 4932 76659
609 21648 80964
610 72857 43687
611 26994 85981
612 32561 100640
613 17460 38947
614 39257 96713
615 38654 78656
616 -7134 79597
617 9544 49078
618 52333 75838
619 53029 93072
620 33130 49962
621 55173 96673
622 46599 47199
623 68988 78839
624 52507 53874
625 49558 101378
626 67546 58904
627 22228 19553
628 91588 18517
629 5105 87915
630 14505 1985
631 20642 70035
632 26044 99867
633 57590 79665
634 23783 49913
635 55949 38836
636 23869 73462
637 58829 81065
638 4434 81458
639 31253 84696
640 4762 64858
641 26047 62336
642 21048 30887
643 45988 78890
644 24449 19121
645 65534 50823
646 32301 56358
647 3948 14620
648 63290 62215
649 78530 83048
650 45824 89773
651 71608 65100
652 15206 90791
653 16965 47826
654 43576 23435
655 58012 71753
656 23595 41686
657 68970 57568
658 12138 82200
659 20237 76777
660 49928 81957
661 93213 64474
662 16774 23652
663 34413 75456
664 19685 47204
665 22355 44984
666 3394 63963
667 73328 90912
668 12548 72902
669 60611 67598
670 29912 10355
671 80095 40827
672 48144 82575
673 27354 87331
674 14559 25334
675 4208 17142
676 63020 41148
677 39848 72106
678 12774 67420
679 7821 97093
680 34252 38274
681 14061 68430
682 56943 30810
683 26 7289
684 51837 58714
685 92395 59102
686 98119 83418
687 -4184 78900
688 25075 46212
689 23216 49315
690 30363 66654
691 55832 88730
692 14944 64715
693 42510 39186
694 2598 87535
695 -2877 72571
696 13471 94059
697 27487 88546
698 19316 88814
699 24839 46281
700 18380 93829
701 8139 38027
702 11624 63754
703 23144 19990
704 11460 59966
705 35651 16255
706 23973 61849
707 30955 42952
708 44358 94031
709 5641 55213
710 24585 26906
711 14129 32144
712 10078 87941
713 20976 83108
714 57631 92089
715 14532 98946
716 39963 66862
717 51246 49689
718 10167 65623
719 6469 86999
720 -3673 78089
721 32558 67383
722 67802 8060
723 -2621 8431
724 26437 41818
725 40907 72407
726 82150 88988
727 17835 75101
728 72212 73905
729 3918 68578
730 25426 61008
731 27089 73540
732 17687 37509
733 38642 59509
734 25654 65667
735 5191 66364
736 29283 67664
737 15059 80928
738 51637 103113
739 31641 100876
740 16011 70627
741 85903 79516
742 -334 17122
743 73363 86824
744 40868 62902
745 66820 75909
746 70315 30074
747 45700 92401
748 39 63363
749 26301 46505
750 6105 51712
751 11994 99000
752 53545 40892
753 35320 104275
754 19848 86403
755 49044 95643
756 43716 78730
757 36711 52441
758 26659 79587
759 20358 53559
760 3442 82695
761 6714 59559
762 25797 93042
763 58432 66257
764 45974 90536
765 18157 60150
766 34210 66301
767 41387 92775
768 64307 57851
769 23209 99318
770 64520 71765
771 16868 45703
772 7771 48931
773 8195 69327
774 19965 80967
775 62121 94325
776 69424 80939
777 13443 91115
778 57317 24021
779 34115 50600
780 52712 72757
781 11588 86563
782 61851 33269
783 54946 79853
784 34321 44086
785 6124 62476
786 51981 22442
787 27958 98927
788 34996 34018
789 30185 64399
790 20025 73554
791 37852 44671
792 47395 69281
793 10621 87382
794 52226 57548
795 4493 27302
796 40266 91932
797 17293 76133
798 19984 44526
799 43160 58741
800 654 71253
801 58759 80957
802 58004 80344
803 50379 74836
804 404 89428
805 39474 58540
806 6645 55580
807 26973 90838
808 35975 82660
809 26754 87998
810 35525 57905
811 63569 63114
812 29477 42473
813 4201 7702
814 73417 92121
815 41706 77193
816 13937 97677
817 52249 79300
818 54360 100076
819 76342 83843
820 63383 12398
821 77443 99648
822 54374 25439
823 29075 21463
824 69057 90018
825 22377 28207
826 13918 88355
827 41660 83294
828 16078 98434
829 56701 36885
830 28987 25397
831 11367 82680
832 54606 27257
833 63726 66509
834 18671 88771
835 39557 31191
836 83641 38856
837 17094 28073
838 70280 74253
839 76220 55670
840 35464 56256
841 27881 84874
842 7381 42374
843 62914 47494
844 48762 60807
845 47479 28364
846 71339 91753
847 25085 62822
848 58230 71730
849 48143 51682
850 -90 54057
851 75664 60489
852 51674 90256
853 75909 55586
854 32891 33865
855 75430 99171
856 50874 69349
857 62601 101835
858 44664 70988
859 20147 49144
860 28684 86373
861 9783 71781
862 59008 87679
863 30216 40940
864 4775 48751
865 83712 85495
866 49842 30342
867 43729 96044
868 75853 75363
869 8595 90285
870 28846 36149
871 63045 41594
872 16314 98414
873 26886 79303
874 55354 27402
875 42342 90327
876 50549 43509
877 31229 58332
878 43311 94583
879 39399 63169
880 9145 59315
881 57752 85446
882 1960 1084
883 53085 104090
884 36518 22471
885 86630 45607
886 34382 89596
887 29405 82940
888 67576 84035
889 29877 78586
890 92756 94574
891 5860 78702
892 42204 60973
893 4596 75985
894 81445 94882
895 45323 78671
896 55008 84072
897 62026 103827
898 20564 55329
899 -125 27479
900 25366 16611
901 74076 76351
902 28599 64654
903 19702 18433
904 31204 69718
905 68674 69669
906 10517 76767
907 44323 46567
908 61324 59771
909 22239 50180
910 9409 54050
911 40543 70757
912 53477 103857
913 35140 57931
914 27016 46333
915 2830 88260
916 28118 28556
917 12801 87021
918 30670 42206
919 36380 80427
920 29472 80714
921 67776 49304
922 52174 71637
923 28466 59696
924 48412 55319
925 28796 70976
926 9890 53780
927 65350 49289
928 17467 67537
929 92675 97760
930 33481 58951
931 58921 41010
932 65663 84589
933 85090 53995
934 17111 90801
935 40993 18883
936 35437 37828
937 11428 61294
938 64675 72098
939 22726 53233
940 1322 66064
941 49781 80569
942 79238 50151
943 70512 54507
944 14397 24985
945 -1912 89158
946 43698 46926
947 20928 67908
948 53317 88580
949 8941 75743
950 11683 51165
951 12162 73092
952 86231 42585
953 52693 103064
954 7534 85170
955 26316 76240
956 9777 81478
957 31204 52099
958 26500 67744
959 4294 39451
960 60671 19086
961 34243 100594
962 48319 94672
963 78087 67652
964 4906 23521
965 54206 61110
966 21032 68336
967 5308 67498
968 75558 63418
969 58962 66357
970 5379 92942
971 10038 57139
972 27084 67278
973 13581 56624
974 14392 95033
975 41523 108903
976 66490 71625
977 40405 75328
978 80112 59799
979 65492 39355
980 85929 1346
981 48655 100874
982 16545 60689
983 8094 90257
984 78972 102657
985 60293 95664
986 8911 36598
987 50486 78063
988 63315 71113
989 2230 97828
990 44512 44391
991 11299 42854
992 7777 87983
993 59947 89032
EOF
