NAME : lhk
TYPE : TSP
DIMENSION : 993
EDGE_WEIGHT_TYPE : EUC_2D
NODE_COORD_SECTION
1 80000 20000
2 1385 81953
3 30285 78447
4 7011 59721
5 1151 30330
6 56721 95840
7 61514 28776
8 30606 30829
9 16443 2956
10 60574 79700
11 7880 33949
12 30569 46725
13 57290 80170
14 12636 98072
15 -1874 69405
16 27453 99110
17 29015 68333
18 15723 93383
19 59005 73026
20 49526 33873
21 37263 97610
22 41531 60718
23 34643 93647
24 53594 99744
25 61246 20081
26 92908 89438
27 36459 23329
28 47706 30812
29 19794 92804
30 74583 43587
31 35348 64145
32 14696 90166
33 21297 38566
34 92318 42294
35 33488 64178
36 55702 60716
37 25237 95617
38 29660 36744
39 31098 34750
40 -1751 93058
41 54272 84952
42 28417 82760
43 65325 94329
44 59358 42288
45 12546 96903
46 67066 40768
47 5711 31804
48 11224 42542
49 12716 83986
50 42952 57365
51 21019 89522
52 68017 75022
53 65412 97967
54 38611 97846
55 39370 62120
56 46258 24436
57 38611 65667
58 8807 50040
59 12517 87639
60 27108 58167
61 21313 81246
62 -1642 21764
63 53307 94223
64 50515 42750
65 33455 20225
66 20060 34976
67 43366 45842
68 64502 69701
69 72207 63982
70 42920 52082
71 65362 51699
72 69579 81003
73 32980 95344
74 29527 79332
75 2986 35636
76 1005 79711
77 28649 87335
78 9826 60335
79 16120 40752
80 25789 62124
81 46652 68425
82 6643 58463
83 45019 80166
84 64537 72124
85 55437 65362
86 63423 47782
87 1935 30697
88 16253 25469
89 16354 81502
90 26083 63581
91 1780 81295
92 46493 64341
93 41385 85967
94 18405 82596
95 52357 72951
96 2971 85008
97 23064 97482
98 3905 71020
99 86416 22242
100 15156 72599
101 16028 44609
102 49396 63901
103 69036 53381
104 57676 -435
105 43677 67404
106 46876 102672
107 -2324 92781
108 88999 58165
109 13132 81128
110 46366 76661
111 78915 64679
112 34938 19752
113 53894 81089
114 16958 76120
115 14931 64786
116 14809 96512
117 442 60493
118 61866 45902
119 48843 83074
120 2389 62355
121 28367 99101
122 25296 26827
123 29 55524
124 1695 46468
125 28209 79349
126 23701 35670
127 49038 90773
128 30333 55920
129 -3372 37612
130 43967 85677
131 16227 66757
132 18430 63545
133 16291 65427
134 13073 35564
135 46015 77035
136 74855 95698
137 90922 61618
138 28200 74115
139 4235 100061
140 32236 98747
141 54457 78786
142 30377 87790
143 19895 53283
144 72816 48516
145 43392 73794
146 61856 92577
147 34896 92190
148 31364 54165
149 19112 44253
150 61362 99618
151 31385 91899
152 26959 42322
153 64551 62846
154 12940 84238
155 10555 44218
156 41492 43655
157 48189 89923
158 -4560 45489
159 68189 85979
160 70294 82148
161 39734 22470
162 56794 51998
163 13678 71430
164 41622 71943
165 60465 28074
166 37205 103216
167 -5017 53299
168 31292 88358
169 9846 76416
170 152 77949
171 89972 65806
172 37794 64018
173 44990 79966
174 64796 69134
175 8061 51844
176 37816 66561
177 61848 11999
178 61905 87415
179 4232 84145
180 58047 82865
181 44319 43251
182 33290 96881
183 20691 60516
184 19709 91627
185 23282 77645
186 63588 93158
187 45585 53519
188 -423 15703
189 44814 54668
190 39416 75229
191 72298 60481
192 39526 34200
193 14500 65417
194 41581 85734
195 49622 44022
196 73730 45556
197 9258 57212
198 55689 46182
199 74947 60340
200 6942 80850
201 7448 105372
202 83771 59180
203 60797 101534
204 14015 75758
205 85615 70297
206 16816 30380
207 49835 90388
208 7346 71990
209 64977 72741
210 47767 28940
211 39518 50970
212 13429 10942
213 14457 47806
214 7374 88758
215 -4300 61454
216 39511 78979
217 43876 62162
218 57354 43298
219 2858 58080
220 8504 61031
221 16547 76698
222 23798 31982
223 1221 55308
224 33302 73090
225 -98 74609
226 41474 72292
227 31999 73595
228 29516 97912
229 11882 40088
230 63610 74097
231 35893 92694
232 36586 81078
233 69055 40580
234 31311 61008
235 4527 59146
236 44518 63787
237 15532 95802
238 39781 59522
239 70442 62726
240 51554 96801
241 5812 85350
242 35993 77363
243 81489 51327
244 90150 13695
245 14442 81534
246 56540 93593
247 29714 20754
248 10281 90220
249 49470 80102
250 14737 89476
251 53081 37201
252 67728 96183
253 33226 76774
254 19729 80245
255 10870 12882
256 638 65946
257 34154 84322
258 40702 35146
259 14291 29472
260 56302 79613
261 81110 11259
262 37961 25038
263 50117 50398
264 5774 96489
265 44600 60724
266 46304 96226
267 20841 74050
268 29514 58055
269 8366 31716
270 22448 47094
271 34650 76702
272 25559 88098
273 15420 65404
274 69007 97735
275 83353 30601
276 23577 73218
277 47156 39107
278 1456 76874
279 30345 30154
280 17224 48396
281 60696 76092
282 37858 60058
283 56604 64170
284 14633 42749
285 27069 27395
286 60658 87135
287 49874 59627
288 45901 17468
289 20704 95995
290 42386 21943
291 73372 82520
292 37062 68811
293 47207 85448
294 52231 55569
295 43612 79663
296 61694 27337
297 33345 88590
298 54659 83428
299 -3154 67472
300 4883 19604
301 1409 84587
302 4533 88044
303 20248 51525
304 6668 43304
305 10507 93507
306 50408 84573
307 25311 90349
308 30746 33058
309 29155 57079
310 31744 90035
311 37817 23309
312 92296 75945
313 4361 37893
314 61790 90826
315 57436 42095
316 54263 75909
317 14707 84262
318 61353 93438
319 74883 104463
320 48024 93172
321 47619 86942
322 11223 72744
323 87967 81765
324 74603 34372
325 21763 57575
326 7414 92827
327 19013 76295
328 33850 66575
329 -5435 40956
330 18536 63293
331 11364 35034
332 7688 24235
333 81072 65172
334 24861 78111
335 76323 59969
336 55087 81010
337 12626 52460
338 42167 11019
339 13289 70831
340 23890 67053
341 61371 71506
342 5475 53747
343 37508 53125
344 38461 80667
345 55002 101363
346 95893 12186
347 11659 73591
348 979 64579
349 8470 22813
350 24315 66372
351 38224 75114
352 31904 17392
353 19265 54486
354 76969 96095
355 25240 25943
356 61177 44671
357 46909 40666
358 65917 38462
359 50432 36458
360 37609 62092
361 22183 83921
362 15032 66079
363 -4312 11428
364 39584 9467
365 7406 85424
366 36261 64402
367 13252 9603
368 45233 95941
369 11716 87378
370 58790 82427
371 41074 64046
372 -249 70889
373 105098 81670
374 9212 40846
375 16887 70381
376 46237 94897
377 12381 66636
378 54769 27294
379 65105 75878
380 32003 24477
381 -2946 102425
382 1518 75835
383 19786 69839
384 78249 67577
385 7426 47251
386 77299 70941
387 21672 91834
388 73159 45175
389 30369 33951
390 53620 90391
391 29213 65984
392 27151 51438
393 35899 90268
394 71594 65946
395 43074 83742
396 61502 74515
397 51939 51942
398 30734 39563
399 18203 62752
400 3000 90444
401 12397 72517
402 9330 94341
403 16640 20233
404 29910 45304
405 33121 63728
406 739 87979
407 57099 92329
408 32688 14440
409 54396 90652
410 29785 98537
411 42795 64835
412 9463 69873
413 5174 6831
414 30257 47649
415 38211 34372
416 42976 79820
417 38868 81508
418 74354 80882
419 23029 85343
420 50423 33828
421 73732 68521
422 37971 28174
423 16385 55288
424 8123 35094
425 26606 80987
426 83815 54615
427 12584 85079
428 2885 62817
429 36293 92704
430 16374 74776
431 22541 105246
432 16135 83178
433 60336 76063
434 4237 83114
435 51462 111122
436 6090 111253
437 8949 83990
438 43789 83275
439 36456 43575
440 31618 21476
441 59222 66365
442 11914 102417
443 7654 85516
444 27280 69272
445 2166 92849
446 10641 69939
447 9373 89047
448 -2832 94344
449 37483 91950
450 39526 99231
451 94012 71328
452 32887 57373
453 43925 42085
454 47203 70611
455 31083 76171
456 4204 24037
457 24341 95640
458 10892 78055
459 54291 27115
460 42266 63965
461 62223 66187
462 51524 56064
463 25082 93440
464 8652 48040
465 57377 93627
466 57949 81663
467 76246 32372
468 41468 32592
469 48849 54312
470 12650 85428
471 31538 84828
472 46232 56858
473 52843 39399
474 86660 80901
475 27813 24214
476 20516 34969
477 18312 43160
478 66239 95041
479 57931 53636
480 16134 71348
481 46252 48544
482 72760 79707
483 17651 66211
484 103590 3448
485 54594 67095
486 52195 58596
487 27707 38422
488 13905 75959
489 15874 7955
490 5796 41484
491 14206 87889
492 16542 96595
493 42837 45398
494 32505 60363
495 86325 93946
496 11699 87087
497 26006 51337
498 97742 64722
499 54468 45954
500 -1055 43897
501 17230 71623
502 28435 67614
503 12727 67106
504 12819 70909
505 66354 20948
506 8466 40893
507 83400 68936
508 28713 65302
509 37679 41780
510 54496 78089
511 33281 47397
512 55392 94747
513 47214 46723
514 52896 81192
515 1809 33032
516 59331 64433
517 44985 94506
518 3191 68994
519 35771 -794
520 57113 50976
521 88850 35540
522 15056 103750
523 44293 43016
524 41034 79784
525 10302 54716
526 31695 43241
527 32125 68174
528 11531 60889
529 82441 84755
530 40514 35346
531 39442 82558
532 5926 64251
533 51070 102450
534 38784 62768
535 6801 41532
536 33328 40678
537 54529 97756
538 29646 78460
539 67290 63931
540 46707 85988
541 33830 75758
542 51066 99341
543 8768 45449
544 33166 45538
545 67299 84506
546 30034 54945
547 3672 75601
548 1448 85787
549 40820 93230
550 26084 34567
551 30114 84497
552 7372 73159
553 14746 67176
554 68510 44583
555 -5552 69698
556 54869 25223
557 4051 74448
558 14044 89370
559 40796 55405
560 51024 97234
561 10884 79302
562 38047 80765
563 39434 90301
564 52402 75097
565 41794 84403
566 3167 56498
567 41463 39553
568 52194 86717
569 6469 91939
570 33578 102071
571 1184 79047
572 29404 71412
573 8965 27034
574 36582 15638
575 30567 65724
576 53175 77119
577 41935 61279
578 55571 57115
579 17947 87583
580 73657 76410
581 71790 100056
582 60707 28920
583 52346 75638
584 75809 58962
585 56350 106736
586 825 85499
587 39349 30741
588 25046 62977
589 18740 20325
590 18081 59407
591 82587 30840
592 36784 72469
593 72426 42775
594 11133 98664
595 65559 34128
596 56366 66159
597 43775 59459
598 50524 48290
599 64988 20066
600 23617 65493
601 22497 72924
602 11282 60355
603 21716 26673
604 37667 53768
605 32691 73177
606 65426 76173
607 71051 43345
608 1916 63856
609 24146 72455
610 76907 43537
611 24304 95339
612 29615 100345
613 17102 30856
614 36125 108540
615 40654 75484
616 -46 83462
617 10461 45378
618 46826 76750
619 53154 100434
620 23801 45530
621 62664 91608
622 55465 61284
623 57813 84230
624 55184 46388
625 53896 100971
626 61443 60647
627 23746 23515
628 91357 13862
629 7912 86825
630 13397 9563
631 13998 65137
632 28058 99713
633 51146 78626
634 28042 51131
635 58568 38455
636 21117 62806
637 42722 77182
638 -1173 93417
639 33691 89905
640 3257 65617
641 22961 63141
642 9967 19133
643 49430 83411
644 20375 19862
645 67130 41164
646 31890 72791
647 10210 6660
648 60211 64252
649 83022 74737
650 44509 75741
651 58458 69109
652 25490 91177
653 9192 45875
654 48771 12513
655 60008 73905
656 27778 35712
657 73951 61222
658 13198 75890
659 20311 74412
660 53832 91639
661 92896 75200
662 18611 25161
663 43095 68432
664 14494 52122
665 17680 38772
666 1026 76883
667 74985 92398
668 -2173 63910
669 59716 60914
670 21881 15993
671 71391 35781
672 63950 86661
673 24281 95616
674 9859 24450
675 4354 24725
676 61177 35903
677 38601 57322
678 8121 61130
679 3037 89455
680 21150 42418
681 5069 66601
682 45193 30401
683 8983 14939
684 36032 66596
685 82038 64814
686 92060 89099
687 5240 72022
688 29785 36109
689 29542 48948
690 33584 77595
691 57462 88298
692 8078 56990
693 34008 41102
694 2807 95715
695 13326 70252
696 8876 81126
697 23457 95702
698 23024 75348
699 16785 54404
700 15149 98695
701 15991 40421
702 10481 75240
703 12716 15904
704 8841 62620
705 44236 22633
706 26468 57899
707 31351 43858
708 41452 90673
709 5618 57526
710 35300 24236
711 9295 29550
712 5805 93957
713 24773 93591
714 35725 92256
715 19364 107517
716 28421 65760
717 53440 41881
718 -3009 74443
719 923 89485
720 11162 81963
721 27559 68219
722 67650 7061
723 -1773 3972
724 19286 51458
725 46201 65049
726 78145 84857
727 19669 75069
728 56454 70143
729 -5632 77545
730 32324 58493
731 25949 71449
732 12050 39152
733 37472 57430
734 26590 69125
735 -2163 64511
736 22252 65875
737 1137 89598
738 65581 100038
739 38007 105517
740 10353 62776
741 82174 81056
742 9845 19737
743 72950 95385
744 43062 71783
745 76924 76376
746 71071 38317
747 50487 85987
748 5913 60832
749 31536 49409
750 5722 59468
751 11558 100740
752 54650 29174
753 36444 99486
754 23142 94451
755 55038 90839
756 47929 81853
757 36707 57784
758 25150 76311
759 17096 48019
760 13470 78582
761 8755 59277
762 19975 95113
763 51003 66949
764 44051 93268
765 8952 68419
766 39772 65476
767 35308 99608
768 74052 59935
769 26435 96162
770 57611 71472
771 10850 43153
772 21568 39317
773 18538 61562
774 25927 76530
775 54741 85489
776 69515 75517
777 16703 101858
778 66880 15303
779 32491 46072
780 37037 73419
781 12669 80837
782 65601 28218
783 54152 80040
784 31057 40086
785 1267 63289
786 45944 32831
787 21368 98707
788 22573 29898
789 26465 61512
790 21197 73869
791 38494 36281
792 52214 62381
793 -1263 83436
794 53621 55222
795 2573 26146
796 39623 96319
797 13509 68371
798 14202 42474
799 49663 69118
800 -2916 62631
801 56004 77645
802 52632 80292
803 47784 71791
804 5524 90752
805 38531 59912
806 14121 50412
807 33213 83265
808 36033 81215
809 26900 106436
810 42976 48649
811 54107 56949
812 22070 37725
813 -3674 3711
814 68290 85790
815 44008 90528
816 18000 80403
817 60912 87747
818 57031 95508
819 66811 81963
820 62612 27274
821 84546 104910
822 61485 31421
823 34436 24590
824 74017 81753
825 20780 26621
826 16841 77671
827 55601 84434
828 3962 94720
829 49479 27048
830 26088 31002
831 3903 83430
832 60675 29930
833 58909 69145
834 30826 96305
835 31574 23715
836 84740 43549
837 13181 20500
838 79909 75015
839 81354 55134
840 39224 53127
841 37167 85527
842 17017 50707
843 68243 42093
844 48636 51959
845 53615 32663
846 78719 86258
847 22370 54916
848 57943 81091
849 45461 51227
850 3166 56369
851 65832 61514
852 47578 94472
853 71165 57837
854 37915 41853
855 67830 101197
856 48240 69119
857 50838 102460
858 53716 73419
859 18700 48858
860 23049 90569
861 9487 68646
862 44761 73040
863 30418 42692
864 7044 46035
865 75969 81422
866 49582 30516
867 44306 95655
868 68187 69729
869 7614 103378
870 20852 26964
871 59214 49253
872 13834 93728
873 22922 84211
874 47443 27616
875 40658 101450
876 51305 47576
877 37607 54462
878 37695 91417
879 37687 81006
880 16434 65916
881 53442 82762
882 17817 7236
883 56875 92396
884 39614 18488
885 97421 54113
886 25671 85104
887 18933 74802
888 61321 91629
889 21400 79093
890 90349 88747
891 2763 81818
892 41160 58820
893 7992 79641
894 88803 102050
895 43439 70728
896 47290 85964
897 43070 95399
898 21191 62195
899 -3220 24131
900 29926 24080
901 65573 65328
902 31532 68618
903 26665 17143
904 23312 69602
905 73318 78712
906 4867 82985
907 51651 50075
908 53010 56768
909 23958 41610
910 5185 56993
911 44805 72286
912 57441 96417
913 36385 51693
914 29998 49339
915 12230 88286
916 15666 33463
917 17960 87628
918 45845 40025
919 30609 90642
920 33740 85370
921 74742 49394
922 49215 72439
923 39931 54241
924 47695 54964
925 24125 66742
926 4483 57659
927 66055 48967
928 15232 63004
929 87700 97633
930 30014 66491
931 56762 39345
932 65229 85313
933 74994 51445
934 16722 104091
935 35007 27237
936 39243 33359
937 9992 51351
938 65678 76766
939 25092 50674
940 -4670 64961
941 56238 90877
942 65198 63584
943 68028 65062
944 24103 39370
945 -2469 79617
946 46512 50203
947 23084 83841
948 50858 88936
949 8178 69691
950 24474 49753
951 30976 73392
952 96816 56724
953 56409 86037
954 -3397 97887
955 28840 90122
956 1831 84658
957 26748 64322
958 33917 65348
959 2725 38405
960 53468 26342
961 34510 105715
962 42640 108349
963 79933 66310
964 8017 15062
965 57056 61388
966 29821 69023
967 -356 67758
968 83718 56080
969 53611 72839
970 4058 90066
971 4244 66725
972 26812 63406
973 11435 56598
974 10110 98881
975 40877 97040
976 75579 80074
977 40928 74823
978 94360 55147
979 65178 51135
980 86738 13496
981 49380 98524
982 16097 63973
983 9460 86041
984 81511 89075
985 69243 86046
986 13084 37025
987 41025 66165
988 54889 72058
989 -1407 100011
990 35033 35368
991 11316 40458
992 -82 87151
993 67655 92667
EOF
