NAME : lhk
TYPE : TSP
DIMENSION : 58
EDGE_WEIGHT_TYPE : EUC_2D
NODE_COORD_SECTION
1 1137360 1101616
2 1121857 1033125
3 1101304 942242
4 1077441 836729
5 1064038 777458
6 1057553 748944
7 1044048 722269
8 1029596 689224
9 999555 644066
10 982124 602835
11 1012982 543412
12 1005333 444559
13 998770 325785
14 993987 219009
15 989530 112653
16 987805 71383
17 981379 62335
18 879760 57008
19 747627 53454
20 333155 19675
21 445199 36361
22 545169 44226
23 593316 21804
24 115299 33650
25 30085 33464
26 12403 43256
27 11149 173282
28 9863 289491
29 -1445 418065
30 18085 527944
31 68412 597614
32 194229 605841
33 213922 693774
34 219657 707090
35 243717 726647
36 333562 831608
37 343719 842673
38 335281 734475
39 326135 612277
40 338491 601902
41 446962 614380
42 491845 618732
43 570148 625184
44 649893 615315
45 691463 610196
46 770161 612474
47 825964 615952
48 808966 651757
49 717925 726588
50 503580 899446
51 493514 921634
52 564304 959841
53 656290 1004276
54 710505 1052025
55 808427 1080195
56 954883 1096695
57 1054948 1109096
58 1115700 1116226
EOF
