NAME : lhk
TYPE : TSP
DIMENSION : 127
EDGE_WEIGHT_TYPE : EUC_2D
NODE_COORD_SECTION
1 80000 20000
2 85418 16718
3 83684 24768
4 81612 29905
5 75821 45269
6 75642 52754
7 73700 50894
8 84058 60267
9 73700 50894
10 73692 50889
11 57186 68260
12 68812 67684
13 72527 54926
14 74421 73948
15 82450 76729
16 52878 84253
17 29323 72933
18 13984 42241
19 12422 28805
20 10719 36480
21 11780 42862
22 11801 41397
23 11722 46958
24 13727 60991
25 11705 48094
26 11659 51355
27 11651 51892
28 8778 55710
29 11349 59299
30 15292 60701
31 13545 61143
32 23081 70877
33 15349 59637
34 17939 59878
35 25342 71409
36 28329 75097
37 23354 72573
38 22950 70062
39 18052 68139
40 22996 70346
41 11775 59841
42 11784 74656
43 7890 77814
44 9485 73043
45 10478 90072
46 9584 74731
47 10652 90049
48 9738 77385
49 10478 90072
50 9673 76271
51 10056 82834
52 8742 88526
53 19215 88910
54 11586 89925
55 24661 87827
56 21796 88567
57 23108 88723
58 34035 88132
59 16285 89594
60 25061 87522
61 25358 88618
62 29736 90852
63 44275 88353
64 40660 91537
65 48352 90889
66 50528 90512
67 57674 89864
68 60957 90531
69 63056 91531
70 58550 85772
71 69762 87996
72 64034 94111
73 69452 91558
74 75664 88059
75 81232 88186
76 82936 87890
77 85998 83283
78 66359 75794
79 32600 87918
80 11961 30138
81 11225 26724
82 12123 18770
83 12483 15474
84 14731 13246
85 26455 16173
86 26096 16314
87 25554 16718
88 28972 15686
89 29962 19524
90 35488 15619
91 33250 25706
92 33765 20184
93 32655 22887
94 32975 28634
95 33237 29553
96 31170 31659
97 22857 50186
98 30346 38888
99 29696 41056
100 35836 54616
101 27019 65730
102 33412 64396
103 35244 53309
104 44098 72861
105 39194 62032
106 37789 58929
107 43676 71930
108 38798 65661
109 41184 64546
110 46923 81691
111 43517 80143
112 44404 76445
113 45062 74991
114 54614 73118
115 55366 61364
116 57120 68393
117 53171 53043
118 54658 58682
119 52607 45518
120 50481 46064
121 51390 42524
122 52541 38528
123 55728 33833
124 57318 31267
125 56278 32945
126 68353 15777
127 70377 13669
EOF
