NAME : lhk
TYPE : TSP
DIMENSION : 993
EDGE_WEIGHT_TYPE : EUC_2D
NODE_COORD_SECTION
1 80000 20000
2 14199 85132
3 32828 84841
4 12873 65945
5 2060 28595
6 45428 99252
7 65390 30787
8 35388 31285
9 16105 13234
10 53864 63547
11 12872 35412
12 31444 45527
13 52310 93804
14 12048 92930
15 2639 67222
16 14781 100098
17 27547 78215
18 20214 89909
19 75398 80185
20 51278 33471
21 28716 99268
22 36312 77544
23 35439 89691
24 54083 95944
25 67941 17538
26 99850 93014
27 36463 21567
28 55734 37059
29 22258 100443
30 74737 42486
31 33645 58788
32 2149 88510
33 14591 37688
34 92231 43234
35 18352 56356
36 49265 51830
37 34897 94707
38 20831 34370
39 28678 49050
40 2313 92179
41 54593 83808
42 20024 85054
43 65496 93149
44 61939 44767
45 30893 91192
46 66596 34759
47 1978 33850
48 1829 46574
49 9629 79282
50 32324 50548
51 21832 89032
52 71064 71967
53 67426 97215
54 35689 93684
55 34149 66703
56 53362 28842
57 38991 55881
58 14469 56932
59 28667 91034
60 24743 53563
61 36584 75949
62 4417 18393
63 51028 94190
64 51991 36813
65 39204 21005
66 21886 35097
67 52337 47979
68 63514 72994
69 74766 63503
70 50519 42953
71 70147 54760
72 68291 74147
73 29240 99154
74 21791 87155
75 4827 28473
76 -7536 87575
77 26441 86551
78 2849 65973
79 10137 34690
80 24740 55994
81 43054 72922
82 17808 63921
83 51137 77493
84 74310 76564
85 56837 64429
86 55232 54754
87 3885 27059
88 5905 43803
89 20196 82892
90 35565 52205
91 -879 78795
92 53142 73215
93 35038 100032
94 14757 87918
95 53960 74492
96 14998 86996
97 31050 96966
98 15408 66611
99 94887 31767
100 20410 67106
101 11173 54611
102 45068 55022
103 69138 55180
104 64556 2833
105 37893 63859
106 46779 98291
107 -4432 86987
108 96280 52545
109 5183 87943
110 53647 70805
111 83704 64868
112 37459 14700
113 61099 80917
114 14360 66796
115 11446 60605
116 15209 94404
117 2676 50680
118 59756 42904
119 53203 79620
120 17498 67868
121 32259 94786
122 23157 26495
123 2696 48104
124 -1303 40308
125 31097 72783
126 17006 34700
127 48569 80497
128 34784 49777
129 418 47338
130 49073 96817
131 15677 62011
132 21286 67721
133 27791 67410
134 16306 26802
135 48940 65633
136 72988 104188
137 88023 53203
138 33647 64221
139 5672 97582
140 26007 95278
141 49195 84470
142 37735 79365
143 15367 52668
144 65466 46405
145 38446 79045
146 67464 86145
147 32161 89115
148 32117 49547
149 12271 41545
150 67108 99272
151 25378 95926
152 37205 38327
153 78776 66452
154 5194 85676
155 1453 45887
156 39100 52545
157 38386 93579
158 2399 59981
159 68203 94161
160 78123 82294
161 39050 36243
162 47957 53801
163 8191 70093
164 39817 68349
165 50039 26633
166 47618 94970
167 5074 54303
168 31897 86530
169 21603 80334
170 11136 81701
171 87010 50496
172 37206 71524
173 34921 91229
174 68426 73376
175 8146 43437
176 32502 60234
177 63865 1614
178 68948 91039
179 2357 73743
180 52526 82144
181 30842 55821
182 41408 96328
183 14441 61098
184 20059 89164
185 24340 69243
186 70453 100570
187 51877 43849
188 -1152 19467
189 55011 55438
190 31345 81632
191 59334 48804
192 32882 41886
193 9869 65835
194 45404 82129
195 48786 38759
196 77961 53401
197 14731 65070
198 56127 38148
199 85791 56166
200 1971 89832
201 2752 105342
202 77028 71333
203 64488 89369
204 13951 90351
205 85469 75296
206 27234 34214
207 44830 95797
208 -1166 69378
209 57097 76135
210 47469 30037
211 32245 51954
212 12529 11036
213 7340 35792
214 -4372 95857
215 8172 53314
216 40002 81582
217 50477 52218
218 48019 42610
219 16204 58260
220 676 60896
221 18735 68545
222 17538 25555
223 10063 47710
224 36395 69893
225 -2561 66250
226 42802 75394
227 37538 86799
228 7712 96013
229 12092 43377
230 58267 78980
231 41860 93542
232 31976 88311
233 79303 35588
234 23683 58844
235 1414 57927
236 50598 67176
237 5022 92738
238 36158 53074
239 62767 65023
240 44115 96471
241 5575 70748
242 39404 80339
243 81369 49187
244 92888 15368
245 23018 92353
246 53442 91806
247 25127 25398
248 13323 90890
249 46085 79225
250 10385 79781
251 47950 25957
252 78828 95114
253 33480 73956
254 25920 95767
255 16686 10090
256 5697 66430
257 32125 83340
258 41584 43545
259 9232 25392
260 54859 85296
261 82965 2560
262 33991 21057
263 49773 53645
264 4849 96313
265 43748 56583
266 43681 98862
267 20524 71751
268 25343 59123
269 8391 34995
270 28719 53031
271 32884 80605
272 40323 94542
273 8674 58025
274 54892 89059
275 83546 43705
276 14122 61458
277 49419 43003
278 1937 68783
279 22856 31868
280 8117 57469
281 59594 90744
282 45072 61179
283 54277 66365
284 4421 38460
285 27049 26856
286 80148 97140
287 59197 64938
288 39061 8617
289 23992 83767
290 46827 26832
291 70305 76671
292 28639 63490
293 37319 86043
294 56981 55984
295 33974 83175
296 65029 21931
297 29056 79256
298 67731 91399
299 2251 71818
300 5379 32354
301 -3833 79305
302 -3804 91927
303 36700 52917
304 13631 50059
305 5353 102291
306 56532 95690
307 29868 107228
308 22047 19993
309 33328 62656
310 39385 92855
311 46959 14189
312 96122 68950
313 4947 43281
314 53443 89975
315 65837 44679
316 57924 72966
317 13321 91044
318 60107 86954
319 70000 94914
320 57771 84645
321 45756 90309
322 12675 79679
323 89896 86007
324 75091 42922
325 26814 50744
326 7802 81589
327 16185 72080
328 27443 68569
329 -109 37148
330 18510 67116
331 7633 42451
332 3117 26117
333 77797 68002
334 24033 89547
335 73691 54453
336 59150 88261
337 16352 54436
338 42986 15259
339 9814 75002
340 18510 79114
341 63926 67934
342 18000 50363
343 48055 49294
344 44654 87179
345 56869 92937
346 94399 20166
347 12502 73586
348 -10165 59098
349 12871 16534
350 33620 55749
351 44771 76405
352 28680 11913
353 14148 52685
354 74489 89900
355 19549 27648
356 62911 45120
357 40737 45716
358 66631 43571
359 60280 44520
360 36296 75162
361 26493 76823
362 16219 75458
363 15615 20822
364 43408 7004
365 14473 88568
366 39764 65783
367 11928 13509
368 55600 99701
369 23436 78890
370 64007 89019
371 39321 53054
372 730 63599
373 97141 83819
374 16023 43589
375 16969 83754
376 39490 100052
377 8991 60237
378 57286 36965
379 62179 81620
380 39611 34422
381 6839 98746
382 -5130 75162
383 23873 61845
384 71724 60422
385 3376 46340
386 73930 64635
387 9471 92820
388 81649 57230
389 23429 39722
390 41013 94495
391 26562 64945
392 24134 46491
393 34068 89019
394 54618 67688
395 42478 89747
396 58932 80466
397 55733 53946
398 35966 39074
399 15248 68919
400 14302 79206
401 13107 64577
402 4933 86588
403 19250 29624
404 16284 44593
405 41692 65818
406 5515 88807
407 47628 77528
408 40137 20178
409 49622 89420
410 27687 95356
411 48781 63866
412 15520 60182
413 5621 18061
414 26507 38376
415 30580 41342
416 51205 86900
417 38113 77333
418 77016 77655
419 21000 81482
420 46963 24573
421 69221 61666
422 40079 45082
423 24232 47202
424 15101 44488
425 30732 79211
426 70638 51651
427 8952 76562
428 12334 69154
429 31129 83891
430 15015 63301
431 24649 98592
432 23402 82414
433 62081 71623
434 3433 72146
435 46176 95967
436 7078 90256
437 7350 77336
438 29750 89969
439 28762 34478
440 26499 28544
441 58753 65299
442 20959 96580
443 17468 93376
444 21087 77937
445 5179 78450
446 3260 70438
447 7884 89435
448 8143 89300
449 34304 90952
450 52008 93479
451 91730 72489
452 17428 54288
453 43906 40447
454 51404 66909
455 30482 68762
456 4390 24583
457 15176 94028
458 13765 72635
459 54973 39220
460 39728 66165
461 66673 71776
462 40937 51760
463 17670 89947
464 6433 46142
465 65880 100997
466 74226 79686
467 69402 40885
468 38540 34755
469 57740 64714
470 21235 82610
471 33071 92748
472 45253 53040
473 44293 44325
474 86791 91771
475 30262 23788
476 14618 48928
477 15105 44548
478 63317 89191
479 56298 54805
480 25045 78956
481 39793 42255
482 77590 83248
483 14309 65953
484 94823 20462
485 53799 67264
486 61005 49776
487 29323 29825
488 16922 76399
489 17697 8075
490 11226 47171
491 25565 84165
492 21942 100143
493 51150 49055
494 33292 49861
495 75900 104644
496 12944 95221
497 21247 42339
498 99329 57474
499 45709 59631
500 -2040 48532
501 18276 66371
502 25693 72201
503 18120 71190
504 9364 81419
505 68860 18856
506 1255 48833
507 88277 53278
508 20673 59241
509 32749 52651
510 63849 71149
511 26749 57541
512 48418 98624
513 44211 47217
514 51339 76173
515 3371 31531
516 56101 53885
517 49692 93453
518 5161 65257
519 43599 13902
520 58780 55393
521 86790 42751
522 25819 95756
523 39066 50431
524 51091 63458
525 13325 55025
526 27880 45133
527 21063 75108
528 -366 54888
529 83501 71840
530 35026 35751
531 46828 87276
532 9193 55228
533 56847 103386
534 39631 57820
535 17820 55720
536 28400 44439
537 53273 85050
538 25764 78981
539 64385 56184
540 44354 84233
541 41207 73650
542 40817 90697
543 8180 60740
544 31799 53261
545 68372 98401
546 33168 45645
547 7596 84155
548 71 78796
549 48186 95684
550 23949 24955
551 19267 80651
552 22141 85961
553 14896 68396
554 79843 44094
555 3950 80171
556 51660 28089
557 14682 70414
558 12370 89554
559 45563 56802
560 52373 102583
561 10336 75494
562 40463 82513
563 50217 75906
564 48332 76303
565 50759 80813
566 13125 57724
567 43904 44666
568 62392 91004
569 1711 95569
570 43024 97940
571 9929 86966
572 32152 76011
573 10876 26831
574 37580 15378
575 36351 67835
576 50248 76187
577 50481 65049
578 59289 61537
579 21260 89572
580 66890 74514
581 75534 101348
582 63406 15252
583 59269 75633
584 72513 50775
585 58254 97133
586 7610 100775
587 39451 33003
588 29210 75756
589 13766 12866
590 9938 60068
591 94301 39339
592 24576 69408
593 70146 46937
594 13043 101094
595 54685 44666
596 64503 60834
597 26570 62777
598 43701 45677
599 64271 22830
600 16853 59113
601 28711 70285
602 21016 63104
603 23153 31377
604 30630 52279
605 35372 76184
606 47581 67116
607 58487 41219
608 -2696 66687
609 15844 87276
610 78495 40581
611 22690 103103
612 22058 97892
613 29358 28239
614 31138 103821
615 42697 79832
616 3781 78159
617 14274 44754
618 52807 64979
619 61259 88564
620 32133 45602
621 68537 88822
622 49910 61998
623 62308 96060
624 57385 50632
625 57182 106364
626 61665 59177
627 38683 22449
628 90850 27896
629 -4559 83912
630 834 14295
631 4526 72939
632 34282 101962
633 45400 74478
634 25068 59735
635 58013 38181
636 20858 73071
637 54192 88584
638 17692 87698
639 33601 84137
640 3337 74112
641 32286 49868
642 19099 26087
643 47712 80941
644 23711 21767
645 57263 42881
646 27240 66408
647 692 15119
648 60657 63570
649 82590 85119
650 37949 81046
651 71163 65624
652 23366 89203
653 13116 47154
654 40889 14667
655 59697 74143
656 23407 30354
657 69768 58650
658 5296 75925
659 25480 77266
660 52925 80320
661 93312 74863
662 21602 17796
663 42183 72750
664 23933 44928
665 24218 37143
666 8021 60271
667 73892 86537
668 -5783 67542
669 61504 63042
670 30038 15918
671 68439 41190
672 57228 78404
673 26689 92993
674 7727 20172
675 6114 9870
676 63148 38828
677 48536 61735
678 9601 55451
679 3844 100381
680 29068 34385
681 17823 68978
682 43152 40190
683 7234 14889
684 48439 67613
685 84827 57017
686 98939 88186
687 -1102 75754
688 29627 43304
689 30485 56747
690 31785 76045
691 58620 92707
692 8794 59449
693 38395 40497
694 10552 87599
695 5579 62272
696 13236 82946
697 25324 91878
698 22255 70195
699 14373 59034
700 11829 82047
701 21660 42675
702 24115 68553
703 23980 21858
704 6131 67973
705 29024 10562
706 25663 60467
707 38003 36630
708 34723 86440
709 6812 47416
710 21763 23723
711 4783 21459
712 8343 96126
713 23403 86933
714 47513 92946
715 27276 89452
716 40096 66615
717 46403 51561
718 11834 62028
719 4851 88728
720 991 92008
721 24461 63166
722 75115 1809
723 5036 11906
724 27350 50343
725 36295 71308
726 87365 93965
727 19786 74399
728 62137 68066
729 12272 82420
730 25973 59009
731 30602 69844
732 6233 44880
733 41040 49771
734 33277 59104
735 1519 68654
736 25372 59648
737 5345 87659
738 59062 96892
739 37585 95163
740 12580 61904
741 71252 76272
742 17090 10364
743 73514 78014
744 42903 56848
745 68123 75384
746 79932 33364
747 46787 94983
748 2103 70189
749 26140 46611
750 6998 46802
751 6155 93760
752 55920 38561
753 32486 100931
754 20949 95651
755 52072 87297
756 45461 83092
757 29822 48877
758 20809 89684
759 15357 44079
760 -2622 72864
761 15516 63829
762 32116 89971
763 55064 75875
764 44488 92662
765 19495 58310
766 42280 54284
767 46028 106355
768 71812 46760
769 20902 99948
770 52962 69522
771 16581 42181
772 20201 40888
773 21357 71356
774 33570 84121
775 44270 101058
776 75415 80046
777 17877 98939
778 58370 9696
779 37821 43468
780 34222 72869
781 9368 78697
782 63354 27534
783 62161 77772
784 41272 43095
785 1311 68412
786 47660 41674
787 29045 90125
788 26218 27769
789 21806 66628
790 25624 77625
791 41598 42558
792 48776 67828
793 2616 79758
794 51396 60796
795 5066 20216
796 35403 99345
797 15479 76519
798 26168 49303
799 45725 59361
800 4856 71305
801 49562 70473
802 62742 83447
803 50133 77773
804 14625 87604
805 52962 64162
806 14043 52842
807 36138 88995
808 45220 78461
809 22491 96544
810 35021 59835
811 59116 61108
812 30313 37468
813 6356 5732
814 65484 94669
815 48483 78965
816 2056 93576
817 57849 87197
818 68688 92785
819 73877 77958
820 52548 21071
821 73608 96866
822 62140 32899
823 36141 23209
824 70756 81588
825 32456 31742
826 12850 72594
827 45449 77892
828 6935 98043
829 49466 38997
830 19900 35665
831 3871 80541
832 60225 36102
833 56633 76748
834 19207 94684
835 38631 29871
836 83145 49240
837 15496 28252
838 74065 75600
839 75975 55096
840 40406 53776
841 33446 74861
842 17528 52581
843 65074 49437
844 51258 42097
845 57301 42679
846 64065 101495
847 17992 60258
848 60848 76285
849 46334 47004
850 11676 57491
851 71370 54587
852 57300 81020
853 80842 61438
854 44664 32163
855 69529 91554
856 48775 61411
857 50943 92578
858 44733 71817
859 18820 50318
860 20315 80065
861 14639 80205
862 61221 76888
863 42188 47352
864 4419 40830
865 81052 90450
866 50036 35487
867 44486 100514
868 70932 67542
869 7353 92532
870 28749 38380
871 56622 40436
872 22941 103922
873 28465 70485
874 50762 26429
875 44149 99317
876 53076 38969
877 37061 52926
878 38909 87676
879 32165 70365
880 341 64231
881 48443 80052
882 12454 1752
883 56247 89136
884 31147 20911
885 82852 53435
886 16634 84905
887 9088 83644
888 50496 85072
889 26007 73577
890 82078 83343
891 12280 73723
892 27319 51119
893 -1859 87976
894 80481 96528
895 43913 77361
896 51160 70025
897 51326 97175
898 18105 68044
899 -3273 38216
900 27544 14448
901 72069 69918
902 17735 56107
903 23089 26366
904 27523 64305
905 66294 71657
906 2669 74012
907 42661 38006
908 61115 61120
909 20247 47935
910 10125 38450
911 46018 71428
912 55417 95165
913 29819 57840
914 36823 54338
915 9828 99110
916 23521 29457
917 17791 87825
918 30389 46027
919 38501 96881
920 23512 84267
921 81557 55687
922 51604 68753
923 29749 53904
924 53006 52136
925 23307 70970
926 14549 52163
927 56089 48492
928 26786 69063
929 76128 95650
930 32321 60756
931 61054 34828
932 60619 93331
933 79265 56514
934 26450 87672
935 37699 24755
936 55156 40675
937 10100 54408
938 63109 75626
939 22691 52021
940 3291 64082
941 50538 80820
942 72595 52349
943 73924 65505
944 21219 32209
945 6527 88305
946 48036 52257
947 19094 77132
948 58016 87609
949 19817 73685
950 15869 46554
951 24730 68654
952 92543 54148
953 53286 91635
954 4750 87549
955 28198 88107
956 12883 84828
957 12053 62894
958 20730 63388
959 10778 41983
960 65835 25602
961 33916 102035
962 43797 94495
963 70769 67280
964 8670 21791
965 60461 63538
966 26673 66992
967 -4063 75490
968 89376 52637
969 50838 64103
970 -2579 88588
971 20277 67778
972 18708 65688
973 11594 60027
974 12221 100240
975 38151 98998
976 71929 68390
977 40878 74184
978 86480 66681
979 61077 42809
980 83748 9440
981 61975 93714
982 24320 56804
983 6613 96769
984 73946 105960
985 66117 91238
986 7701 23468
987 49832 76485
988 63355 68801
989 3812 94675
990 42782 41067
991 18338 45067
992 4845 76668
993 60586 94590
EOF
