NAME : lhk
TYPE : TSP
DIMENSION : 142
EDGE_WEIGHT_TYPE : EUC_2D
NODE_COORD_SECTION
1 80000 20000
2 66166 15893
3 60685 15738
4 54980 30869
5 42761 34559
6 16987 32094
7 29924 35969
8 33209 17697
9 35177 15395
10 31792 25580
11 25649 21308
12 10908 16345
13 14411 17606
14 11788 17279
15 11056 16019
16 10994 16423
17 12662 18957
18 11010 44154
19 15943 37092
20 10084 37082
21 8941 37501
22 23795 43071
23 11088 51766
24 8620 50010
25 11002 43400
26 11374 67366
27 10558 63865
28 11944 52140
29 11629 51720
30 14687 58320
31 12672 55354
32 11470 69234
33 9942 70700
34 11173 74758
35 13148 72343
36 16636 80257
37 14734 87557
38 11203 87865
39 10925 77869
40 10496 83279
41 10761 89650
42 11174 91045
43 21924 89484
44 31075 89541
45 19580 89514
46 24507 87541
47 32403 88815
48 31757 89519
49 39658 89809
50 33809 89449
51 41428 89805
52 47351 89503
53 47249 89945
54 51448 87539
55 54657 87897
56 51851 87973
57 40626 66181
58 46321 67124
59 51778 87929
60 58693 84640
61 49880 81695
62 50692 78956
63 55504 85478
64 62885 87791
65 67835 87243
66 46831 90203
67 41316 74827
68 43291 78225
69 26088 73632
70 10231 86623
71 10045 87226
72 27522 68621
73 26444 67258
74 28606 60195
75 24461 42765
76 28059 66450
77 28994 61508
78 24951 47826
79 24205 47500
80 21274 46546
81 17024 49417
82 12472 51822
83 22191 55107
84 25184 48614
85 31283 50713
86 33650 66275
87 33320 65809
88 33491 66061
89 34315 67263
90 33609 65684
91 36163 54565
92 36829 58926
93 38339 53286
94 41644 50473
95 82410 44456
96 71018 85335
97 61574 82338
98 64100 85938
99 71719 88184
100 78685 87803
101 81597 88012
102 83591 87356
103 86072 84244
104 85516 83163
105 85120 82779
106 74662 74398
107 75922 58030
108 73914 74383
109 67491 69546
110 77798 77307
111 64747 67629
112 49038 63613
113 51008 66288
114 54040 61954
115 52658 64891
116 49259 65913
117 41081 58632
118 41904 66112
119 65331 67938
120 54113 61993
121 49686 62990
122 53938 62833
123 60439 61370
124 55683 52269
125 71764 54796
126 66331 50569
127 64284 51518
128 57896 38473
129 60404 45398
130 66720 51853
131 66331 50569
132 70335 47494
133 65256 67898
134 75962 57941
135 76242 53800
136 82796 54001
137 85272 51879
138 83579 47699
139 83701 47634
140 86306 28044
141 86268 17591
142 86268 17591
EOF
