NAME : lhk
TYPE : TSP
DIMENSION : 172
EDGE_WEIGHT_TYPE : EUC_2D
NODE_COORD_SECTION
1 80000 20000
2 85954 18861
3 84781 15928
4 82199 29870
5 77934 47078
6 85997 64834
7 85860 64750
8 78886 43726
9 86034 66076
10 78046 46682
11 85642 51255
12 84457 57511
13 77873 55217
14 78236 54909
15 60401 36545
16 76630 51667
17 72626 48579
18 51186 34593
19 56209 34161
20 76460 57324
21 58484 68691
22 75472 66726
23 73718 64574
24 73640 64693
25 63087 69046
26 49876 74868
27 53500 74713
28 74385 66700
29 60936 71564
30 49339 74943
31 55694 75423
32 85858 80493
33 86070 81460
34 50211 86728
35 49635 74476
36 50252 88145
37 50344 88726
38 49737 89476
39 42100 75030
40 45218 71657
41 46962 76876
42 44148 78511
43 38902 74934
44 29146 88844
45 41575 74398
46 34611 77305
47 12600 71361
48 31311 70389
49 40129 88547
50 40003 87157
51 55441 38166
52 44072 24940
53 47525 29777
54 49710 32838
55 54330 34322
56 85001 84234
57 81967 87867
58 79762 89015
59 76773 88737
60 67420 87868
61 65722 91742
62 57150 87089
63 70649 88168
64 64150 71359
65 62121 73313
66 65479 70078
67 62661 52089
68 65601 66423
69 65646 52048
70 57212 54492
71 70469 53064
72 65863 60858
73 34199 55398
74 40727 68892
75 42010 68237
76 57212 54492
77 40760 68889
78 46686 57006
79 45090 64243
80 42173 45762
81 44088 50338
82 44420 53492
83 44958 55431
84 42228 45685
85 42387 47647
86 25284 45116
87 30288 47697
88 42243 45665
89 41804 43221
90 37799 43760
91 31728 43393
92 15166 56939
93 15547 53987
94 19305 54709
95 32417 63431
96 43416 44037
97 34032 58388
98 29474 62685
99 23302 61664
100 12677 67059
101 21493 87740
102 31143 69686
103 20290 43374
104 20020 41816
105 21391 37657
106 19883 35344
107 26673 18731
108 27102 19830
109 17933 22838
110 24574 20337
111 33933 21320
112 36673 16346
113 30741 18487
114 29845 19128
115 26505 19248
116 12498 17530
117 11080 16145
118 10180 16403
119 11790 24357
120 11088 24223
121 26052 19206
122 18918 20100
123 13734 29531
124 12351 27985
125 10685 47434
126 15530 33043
127 11186 38752
128 10515 46682
129 10042 46626
130 9439 47518
131 11067 52082
132 9359 53517
133 11870 52969
134 10598 47051
135 10931 47011
136 11134 53151
137 16104 56318
138 13729 71197
139 15049 89359
140 13011 89659
141 9089 88789
142 20364 85728
143 13090 89158
144 9089 88789
145 11959 89054
146 11217 87901
147 10947 88210
148 9117 88638
149 9037 88517
150 8792 87824
151 9529 87739
152 19111 84719
153 11125 75186
154 10474 74882
155 16606 89302
156 23244 87736
157 24217 88346
158 25198 89353
159 35145 88308
160 48175 88935
161 45637 90896
162 50272 88885
163 10488 70778
164 10961 71368
165 29292 70848
166 9830 72288
167 9816 70455
168 30161 54934
169 41824 40679
170 57748 27070
171 66413 18703
172 69282 14388
EOF
