NAME : lhk
TYPE : TSP
DIMENSION : 67
EDGE_WEIGHT_TYPE : EUC_2D
NODE_COORD_SECTION
1 1146729 1105134
2 1124375 1122367
3 1062400 1120581
4 991331 1109434
5 947746 1098722
6 928659 1111190
7 833191 1078611
8 744647 1057994
9 718626 1059087
10 655384 1014927
11 560855 969326
12 1059163 928438
13 893109 48999
14 753302 45195
15 619981 41583
16 517680 38226
17 402108 35539
18 261068 32090
19 125480 29975
20 23313 26104
21 7151 34261
22 3499 166617
23 -1943 304499
24 -10613 423550
25 11621 536631
26 64834 607210
27 189627 594983
28 282779 600833
29 283181 635137
30 210434 711733
31 223071 732909
32 259141 734484
33 317890 740322
34 321981 797975
35 324818 807984
36 349560 851296
37 386591 859373
38 471009 913564
39 978316 63329
40 1005999 72622
41 1006088 163292
42 1009968 288215
43 1014945 392474
44 1021482 518562
45 1024134 545420
46 940832 559114
47 836299 565241
48 772284 573961
49 652434 576148
50 474138 586888
51 463521 591285
52 486064 624904
53 608926 643430
54 754552 664926
55 878866 683055
56 997040 700221
57 1017052 703140
58 1040552 685658
59 1064885 737506
60 1072330 755433
61 1058508 792155
62 1079172 836982
63 1085998 866345
64 1100267 927875
65 1108852 957801
66 1122226 1002681
67 1144101 1046459
EOF
