NAME : lhk
TYPE : TSP
DIMENSION : 158
EDGE_WEIGHT_TYPE : EUC_2D
NODE_COORD_SECTION
1 80000 20000
2 65199 16619
3 64696 15928
4 59444 16252
5 43678 17803
6 42487 19336
7 39923 20516
8 37704 16837
9 27945 36815
10 23506 24161
11 36269 19872
12 24865 24106
13 26830 21290
14 20207 24293
15 16452 24476
16 10865 16109
17 10865 16109
18 21215 24253
19 12021 32561
20 28649 53749
21 22278 47308
22 10185 44463
23 10101 48103
24 10145 47111
25 9898 48056
26 9880 48101
27 20187 67638
28 18132 66662
29 11666 48463
30 23650 67787
31 9888 47539
32 10685 45785
33 23397 46389
34 23617 46724
35 24451 46126
36 28405 56471
37 36112 60825
38 9879 47630
39 20958 26647
40 23155 47064
41 29746 49125
42 41356 43714
43 39064 45573
44 49515 38358
45 47957 38510
46 40895 43309
47 28319 23967
48 27549 32918
49 48044 37761
50 44759 41813
51 47609 38645
52 50075 38392
53 44965 36741
54 57126 39915
55 49997 38377
56 55197 39238
57 60325 41068
58 62533 47329
59 60434 55750
60 63237 42107
61 65181 46192
62 12149 67482
63 31455 66140
64 34893 64326
65 30993 66010
66 28288 68255
67 29536 69512
68 28288 68255
69 12149 67482
70 16091 71090
71 19364 71961
72 41905 69129
73 42436 66501
74 38231 70862
75 42039 67908
76 41459 44171
77 43393 49260
78 46599 65300
79 42242 47654
80 43562 65034
81 59413 66238
82 56783 62306
83 60209 63509
84 61488 59136
85 58907 62492
86 42327 48031
87 48391 38342
88 76651 84083
89 81505 87696
90 79843 88244
91 79533 89169
92 72920 86794
93 52925 87702
94 61922 86846
95 66969 90560
96 69947 85892
97 69856 87187
98 53592 87909
99 53592 87912
100 54473 88678
101 53508 86919
102 58847 66670
103 53552 71005
104 48984 74197
105 48608 76409
106 44459 83686
107 47517 82580
108 49199 74033
109 53190 87784
110 53441 86545
111 41242 89917
112 42226 84919
113 47943 87477
114 41072 89903
115 35886 89477
116 41354 89926
117 26507 88708
118 38672 89706
119 24194 87983
120 29924 88988
121 33070 87512
122 27314 67943
123 25250 88605
124 25646 88959
125 19047 87174
126 25599 88633
127 17780 88262
128 19314 90993
129 9171 88854
130 9646 82892
131 10683 69850
132 15690 75039
133 10137 76716
134 12149 67482
135 10678 73931
136 8674 71845
137 9884 74322
138 19727 73705
139 47006 77173
140 77880 88592
141 77564 83772
142 79502 89191
143 86023 81962
144 69911 66613
145 85315 80767
146 83591 77226
147 55574 71162
148 69911 66613
149 59021 66537
150 69911 66613
151 72871 65102
152 73977 64827
153 87708 48743
154 87950 48585
155 86737 28506
156 86918 32870
157 85500 17730
158 86489 17791
EOF
