NAME : lhk
TYPE : TSP
DIMENSION : 993
EDGE_WEIGHT_TYPE : EUC_2D
NODE_COORD_SECTION
1 80000 20000
2 7235 91645
3 38435 86538
4 10943 65141
5 1646 29690
6 43315 101017
7 58851 27921
8 30416 47522
9 11552 1953
10 50849 69699
11 3967 39666
12 29347 51989
13 62679 80714
14 22357 94530
15 6527 73201
16 16873 92196
17 28191 76990
18 22935 97764
19 71210 79581
20 48641 45214
21 20067 98038
22 29941 67689
23 32343 103702
24 61312 91068
25 71528 29603
26 100510 95473
27 37132 26774
28 64643 26059
29 23476 106217
30 73491 46918
31 33779 59424
32 19167 85389
33 14867 40718
34 88489 33919
35 24658 58913
36 67554 54363
37 19932 95511
38 22245 36152
39 41297 40146
40 -1917 97141
41 52082 86774
42 24800 71707
43 62991 91249
44 54544 40203
45 19848 96150
46 72721 31355
47 3590 46350
48 7037 55198
49 6408 90622
50 37905 50107
51 10407 90381
52 73914 76761
53 62447 100614
54 38996 96249
55 45449 60788
56 54147 27998
57 38698 58879
58 10060 54362
59 20883 75090
60 27464 61585
61 30856 77805
62 2341 11035
63 56913 90935
64 49998 55067
65 25667 27148
66 26840 38129
67 50764 45881
68 65335 66986
69 66906 73325
70 47847 43584
71 64302 50561
72 79651 79464
73 37333 82834
74 20661 83878
75 11243 26082
76 1954 81429
77 29573 82104
78 -4659 63026
79 20229 40688
80 24751 59787
81 38645 66851
82 19274 65697
83 43572 81597
84 74730 76427
85 54716 66479
86 51924 50287
87 -7033 28572
88 21926 30226
89 17739 81231
90 32694 53694
91 -379 73500
92 49880 74023
93 26065 93129
94 6976 84685
95 50598 71895
96 4454 86560
97 39741 95305
98 14375 63781
99 97355 41326
100 19174 82784
101 7914 58354
102 49213 53784
103 70745 44437
104 75072 3469
105 37200 61917
106 47778 97070
107 3321 91924
108 89307 55734
109 1938 86442
110 61638 68213
111 68664 73516
112 35699 20617
113 63616 77258
114 21623 69397
115 4175 67773
116 14669 90197
117 -924 56161
118 63867 49620
119 55261 88246
120 13830 68082
121 25396 101457
122 20571 33242
123 770 55571
124 5015 51056
125 24701 83965
126 17368 37640
127 50619 80316
128 41871 58215
129 -1179 41064
130 47349 86304
131 19503 69860
132 11147 65899
133 26743 74683
134 6640 27155
135 46367 75672
136 77847 98712
137 83933 53141
138 31758 62483
139 15491 93915
140 35050 88170
141 48430 84025
142 32814 85082
143 19368 51241
144 68834 58673
145 34723 73459
146 59081 88865
147 40923 97255
148 33822 58006
149 23473 45218
150 60006 92553
151 31424 92817
152 41972 41304
153 66883 59027
154 -4680 84751
155 6165 35874
156 33952 51560
157 40029 89682
158 -102 48790
159 81069 86860
160 81352 84536
161 36554 29066
162 58220 58896
163 14630 82885
164 28472 66851
165 54750 24412
166 45080 96819
167 7511 64288
168 34125 83221
169 18161 77656
170 7795 86690
171 94077 53861
172 40876 72319
173 31558 84511
174 72086 71806
175 13301 50280
176 44421 55578
177 68977 4629
178 73257 93715
179 8295 84847
180 54617 81175
181 34571 51513
182 30611 100588
183 10352 42039
184 18627 91929
185 10952 85115
186 58523 89881
187 53407 55122
188 1031 18129
189 54183 45700
190 40437 81605
191 66467 54656
192 34047 28946
193 18786 62550
194 40390 75064
195 35292 46209
196 68598 50506
197 10877 57967
198 47021 40530
199 86408 50420
200 8629 94233
201 10415 101108
202 75778 64413
203 50309 96646
204 -512 87782
205 97386 74835
206 32005 29318
207 49748 90230
208 325 72950
209 56464 73055
210 48160 29972
211 49169 52128
212 6501 16718
213 14238 37525
214 -419 100661
215 2557 52556
216 50343 79496
217 58880 65486
218 53117 34445
219 6565 57003
220 5058 56692
221 18372 73836
222 25219 28388
223 9299 49503
224 33566 74388
225 1930 72959
226 45261 77377
227 36102 71300
228 21413 87848
229 22292 43583
230 53878 72006
231 26976 86514
232 41672 90486
233 63913 40341
234 23162 49210
235 3102 57716
236 53343 61244
237 4314 95800
238 37838 57476
239 71529 67664
240 35412 96116
241 4744 87838
242 35665 82992
243 83655 55120
244 91871 11208
245 15229 82906
246 58497 80157
247 24796 17165
248 13226 87836
249 49529 83592
250 17991 85179
251 47629 30118
252 76837 97012
253 33363 74010
254 29536 82313
255 21915 16841
256 3707 66242
257 29652 76975
258 38134 41226
259 4026 21108
260 62005 82632
261 77263 14509
262 45551 22074
263 55684 47649
264 9089 92284
265 35925 62754
266 42450 95141
267 23675 73959
268 27934 48904
269 14880 34525
270 38255 49757
271 37906 88406
272 35008 94501
273 11634 64494
274 68539 87966
275 71687 40301
276 14888 72526
277 45803 54291
278 6485 70040
279 38434 40276
280 19253 55089
281 50164 79544
282 43819 61685
283 52672 52843
284 9406 38823
285 24338 24139
286 67084 85439
287 53114 58833
288 32906 4315
289 17722 80781
290 55254 33251
291 59001 76338
292 41616 63961
293 41715 87382
294 55069 54450
295 44292 81425
296 65659 21473
297 19337 78287
298 67242 88187
299 2313 64248
300 7063 22329
301 -4864 81901
302 5498 94680
303 26378 46967
304 7691 53610
305 12837 85707
306 51110 92531
307 25860 101930
308 34107 31037
309 36653 70546
310 47844 97927
311 28604 12040
312 97073 74661
313 9588 36231
314 62942 84431
315 68660 41826
316 68440 78080
317 13875 90128
318 59479 85646
319 66044 97063
320 42189 82753
321 49898 87517
322 13187 75296
323 83284 84891
324 71362 35848
325 30229 53966
326 535 86600
327 17854 78828
328 23894 60409
329 910 40566
330 13209 64318
331 12274 33222
332 10110 27619
333 80065 65580
334 16256 77672
335 68602 63217
336 49534 75290
337 16733 57997
338 38276 13407
339 13194 58431
340 8339 81063
341 68656 65799
342 9410 47849
343 48804 38783
344 46717 86980
345 54130 104171
346 89339 22508
347 9512 75194
348 5752 71837
349 13331 18521
350 24903 56670
351 38783 76984
352 31839 22266
353 20709 57272
354 76734 103335
355 26493 31407
356 60468 26223
357 41884 48084
358 64746 52877
359 55753 39598
360 37441 57892
361 19455 86449
362 11577 70381
363 -4228 17258
364 29239 3937
365 5847 87923
366 38361 57412
367 11340 13385
368 49607 98159
369 13195 83901
370 59322 79319
371 43038 56386
372 6982 61609
373 98339 89347
374 16123 40026
375 8800 73659
376 40848 94396
377 2831 67583
378 66114 45001
379 65738 82025
380 33759 24443
381 7593 90430
382 620 68267
383 26395 60578
384 77316 62184
385 1848 33108
386 86749 68912
387 23008 91070
388 77165 66022
389 31488 39150
390 46675 95695
391 27700 59714
392 21994 49553
393 35595 91325
394 58147 58970
395 37920 79102
396 60687 91719
397 65123 63552
398 32576 35390
399 19990 59824
400 12522 85272
401 18428 67954
402 2678 95272
403 15246 24197
404 26438 43112
405 37875 71936
406 9655 98529
407 53264 76811
408 36909 15786
409 57282 84551
410 25499 109148
411 49186 66671
412 24863 72417
413 6870 16600
414 32450 50513
415 24156 46963
416 43977 88501
417 40165 84041
418 79410 84618
419 18113 92622
420 52103 23519
421 69032 68736
422 43710 32541
423 19643 56707
424 14748 52202
425 25190 83545
426 82433 45676
427 -1991 89380
428 8730 71847
429 29103 85272
430 16492 73557
431 28714 90473
432 16222 84761
433 46717 78782
434 5515 78514
435 45284 92954
436 14176 97644
437 9403 83158
438 35642 88930
439 26298 34563
440 27704 9841
441 67820 69288
442 22683 97085
443 7770 87164
444 12231 71780
445 12078 78848
446 9621 71797
447 9339 88895
448 6585 90449
449 37266 97970
450 41026 94229
451 91496 72405
452 32366 56756
453 37720 37060
454 46101 58686
455 28055 77566
456 12382 14526
457 12327 96898
458 14114 79111
459 61387 42431
460 40515 65159
461 53216 76756
462 44441 55176
463 14387 95711
464 12530 46894
465 61560 90751
466 63635 87998
467 70844 42494
468 41989 29877
469 57882 58581
470 21406 84915
471 40767 94557
472 35806 59680
473 50158 44587
474 94638 98431
475 19432 22314
476 21368 49351
477 19146 42756
478 63302 85607
479 66708 54516
480 10470 75863
481 32516 43046
482 58592 84539
483 11732 67724
484 93947 8632
485 52914 74600
486 68490 63427
487 24890 30160
488 19500 78403
489 11517 -1520
490 -392 56890
491 18167 80162
492 24825 88211
493 52212 54802
494 30935 53488
495 73503 93076
496 15704 87320
497 17554 47199
498 97656 59632
499 53574 53612
500 150 41557
501 13386 76273
502 21571 70912
503 21133 68075
504 9176 70855
505 67773 31595
506 11010 45138
507 84473 57974
508 23047 60438
509 33768 44311
510 57625 63344
511 19766 52316
512 48911 104586
513 41475 45407
514 53542 70538
515 1082 30000
516 58905 58018
517 42343 100942
518 2878 71268
519 42459 5292
520 56488 40752
521 95992 41486
522 25911 101751
523 30423 43211
524 47474 59377
525 16475 59921
526 27223 46288
527 22945 70158
528 -3311 56785
529 81128 83665
530 32585 34495
531 45490 80417
532 947 52351
533 48322 92247
534 37112 65852
535 9536 51677
536 25183 49415
537 50910 84871
538 24283 76456
539 56032 48674
540 38114 85758
541 32942 75746
542 48180 101104
543 16705 43469
544 28733 45792
545 68423 96238
546 21139 56016
547 2056 76838
548 1288 90292
549 25545 89161
550 25558 30071
551 22622 80238
552 12653 89501
553 23848 75311
554 72279 50131
555 972 79817
556 51457 28361
557 8957 79494
558 12782 89230
559 45195 64307
560 40202 89457
561 21295 79986
562 41340 81510
563 49319 83593
564 47976 78908
565 54605 81733
566 6035 61205
567 33625 40043
568 51770 87612
569 11311 88175
570 46523 90263
571 9914 85343
572 21950 67421
573 8431 26511
574 39148 23081
575 24360 72629
576 51826 86186
577 34501 56706
578 56964 58831
579 33312 82477
580 64480 66884
581 84220 96929
582 57495 21625
583 45262 66940
584 82300 59823
585 53548 97053
586 7095 85571
587 30923 30958
588 32457 69790
589 6605 11674
590 15727 49565
591 86246 33241
592 31101 69725
593 70006 50226
594 31947 96911
595 57287 41709
596 65441 62414
597 45547 65291
598 44939 59523
599 62172 18633
600 26412 62730
601 15291 63809
602 26610 72315
603 24435 21390
604 33020 48498
605 27221 83325
606 60421 74359
607 72868 46992
608 1179 80592
609 21579 81022
610 70959 33208
611 25611 99931
612 28242 107559
613 27979 37385
614 38842 99431
615 39049 71776
616 5577 72902
617 1283 41418
618 53130 58819
619 55850 89685
620 41041 42694
621 58742 93419
622 45521 55282
623 63689 85487
624 57570 48329
625 53193 95030
626 49030 56060
627 35852 16176
628 93881 17910
629 10440 89897
630 12429 8304
631 13483 73308
632 27740 107144
633 62576 75949
634 24035 59054
635 61143 31371
636 32965 75024
637 52807 81755
638 6535 87975
639 27697 82473
640 -3348 66664
641 28487 59454
642 23391 21001
643 57452 85960
644 23637 25918
645 72089 42844
646 27998 73596
647 1207 9562
648 64938 62344
649 87975 81309
650 35165 69478
651 67916 65211
652 18662 84133
653 8174 51077
654 37811 11361
655 67391 74397
656 27661 45269
657 72420 58172
658 6765 73853
659 23486 75518
660 41303 79470
661 94354 65404
662 23014 21970
663 38156 78959
664 17692 43922
665 29054 36205
666 5087 60974
667 80694 96364
668 3000 74426
669 60445 73475
670 25349 6308
671 78509 40051
672 53203 78976
673 32919 87693
674 12437 25362
675 12501 19987
676 67567 51273
677 45753 64773
678 12819 54250
679 13919 89687
680 29971 33687
681 12516 58205
682 47830 39344
683 7340 15475
684 44063 55460
685 82965 52694
686 91367 85468
687 1244 82655
688 38537 42409
689 32986 49482
690 33191 64518
691 55742 93200
692 24899 50144
693 35051 36084
694 11668 91461
695 11760 66237
696 15282 83025
697 22530 91737
698 24064 72162
699 20009 52923
700 13711 79068
701 23102 34835
702 11719 79084
703 28529 15540
704 -464 57265
705 33472 24866
706 22661 48184
707 43172 45202
708 43472 100381
709 10363 55038
710 33697 22877
711 10814 33063
712 4435 97128
713 9885 87950
714 54848 95670
715 16716 99082
716 49008 65967
717 47418 43205
718 7551 72528
719 5873 80001
720 8040 95760
721 23987 61057
722 67249 12126
723 11482 2417
724 19239 44005
725 46711 79777
726 83354 93072
727 11890 76479
728 68126 74736
729 7212 86294
730 28910 63892
731 36756 69281
732 9535 52197
733 52720 56767
734 24797 64019
735 -222 68126
736 30131 61922
737 8217 76038
738 51371 90606
739 37533 97012
740 22463 56169
741 92884 84052
742 5984 21141
743 79708 84025
744 51076 65237
745 68862 83502
746 76537 28071
747 52294 105276
748 13940 53936
749 33463 50705
750 12376 38951
751 6636 98910
752 58803 27465
753 45048 91783
754 20618 96506
755 52881 86526
756 49636 75184
757 34030 56071
758 31321 76252
759 14138 50448
760 7286 73955
761 4261 71263
762 21230 91879
763 51583 65746
764 44971 92865
765 13525 53533
766 37241 60121
767 45679 103893
768 65121 50134
769 20363 101200
770 51210 80528
771 9985 44089
772 23063 50355
773 18226 57115
774 27572 82296
775 52988 84400
776 80241 84481
777 10307 101724
778 61859 15577
779 29793 48245
780 39909 56830
781 15921 80643
782 66258 40175
783 56430 87396
784 34640 40339
785 4449 67413
786 48179 31102
787 29898 97325
788 35125 29850
789 23480 67790
790 27403 72001
791 31616 40773
792 54638 60533
793 3567 77637
794 55754 55852
795 3014 24972
796 32514 89263
797 7578 84864
798 24738 53386
799 61174 61152
800 3166 67327
801 59039 74469
802 51804 87943
803 54185 74323
804 3900 97088
805 38027 67625
806 19065 58675
807 42668 80309
808 43423 75580
809 36042 98387
810 28618 59717
811 62656 50706
812 29508 38195
813 5626 7181
814 76295 86257
815 46093 96071
816 19433 91616
817 60255 87153
818 64601 96250
819 77101 83832
820 52966 19992
821 76430 91340
822 63326 32164
823 42080 17016
824 66958 91805
825 23119 26222
826 18842 67504
827 52345 70455
828 -992 95733
829 57654 34416
830 22090 32922
831 -978 74667
832 57271 25902
833 52384 82076
834 20887 90550
835 32053 33515
836 85670 39463
837 9606 32863
838 71324 74233
839 86683 48195
840 37940 57847
841 39356 73031
842 9206 45724
843 61676 46054
844 48133 43709
845 46896 42936
846 64445 96326
847 23881 64603
848 64134 81642
849 44154 44170
850 -1187 57386
851 71134 57470
852 51965 88676
853 72293 63271
854 42025 32775
855 65194 96952
856 49189 66926
857 61813 96020
858 52100 73852
859 18077 50559
860 22638 82761
861 5106 81257
862 59500 79174
863 38751 42327
864 5242 44824
865 78301 88965
866 48141 28223
867 46663 103986
868 68414 59239
869 5634 97456
870 26142 32368
871 59824 38256
872 22496 88406
873 23351 83390
874 55620 31522
875 45714 94948
876 63488 48947
877 33442 48474
878 33004 89266
879 36337 63415
880 9660 69628
881 42918 82737
882 9618 -2259
883 47279 109727
884 31245 10855
885 97804 52061
886 13182 91287
887 27670 81278
888 62929 76733
889 23263 75330
890 91145 89624
891 -4436 78516
892 22049 50394
893 8183 84956
894 81589 101412
895 41966 76580
896 47960 77255
897 46608 100648
898 12427 64491
899 6791 21210
900 13568 32046
901 79463 68387
902 31290 63110
903 23105 21169
904 26750 67238
905 55989 74240
906 3084 84659
907 52109 36563
908 55765 58897
909 21573 48770
910 14719 43171
911 33822 58775
912 61964 88178
913 38552 63305
914 27489 47157
915 11471 91250
916 26634 19504
917 19146 91973
918 32097 38313
919 30649 91467
920 34441 92866
921 73479 55750
922 48482 76407
923 30825 52688
924 59202 52774
925 29440 76405
926 3867 56923
927 77109 48693
928 19970 65709
929 86381 101926
930 26870 59498
931 45152 34120
932 61870 81495
933 77599 59893
934 25104 92687
935 38958 19434
936 47660 30266
937 11685 59000
938 77953 73530
939 25488 51831
940 -5260 70379
941 45582 79786
942 70125 54898
943 63885 57439
944 20621 40489
945 7706 77599
946 48103 56022
947 20182 76936
948 47428 79635
949 4848 68779
950 10999 50984
951 21494 72256
952 90771 57065
953 50916 86278
954 4079 84346
955 24606 71645
956 7622 75444
957 30567 61995
958 34271 70575
959 -654 42566
960 62027 15656
961 32008 99584
962 39881 96508
963 67914 68908
964 -979 22776
965 62396 65248
966 26840 66717
967 -2055 76981
968 87876 56931
969 59320 62932
970 3498 89973
971 20139 67364
972 26277 66741
973 8266 62142
974 3407 95781
975 41847 103150
976 72779 73507
977 36044 68575
978 91106 59271
979 60395 51170
980 85808 10670
981 52502 95466
982 22354 60402
983 9532 93668
984 79766 104918
985 54846 91321
986 145 32159
987 51942 70632
988 59530 66555
989 3589 108640
990 44417 36280
991 16161 45405
992 3819 76352
993 63849 103095
EOF
