NAME : lhk
TYPE : TSP
DIMENSION : 52
EDGE_WEIGHT_TYPE : EUC_2D
NODE_COORD_SECTION
1 2779 1649
2 4411 1896
3 7706 4340
4 8655 4935
5 11748 4487
6 12886 4409
7 14466 5254
8 13999 6634
9 13254 8392
10 37508 4738
11 36817 3306
12 34641 3062
13 29914 2672
14 27399 2825
15 27280 2500
16 28368 7420
17 28662 7535
18 28506 8039
19 26811 9143
20 23326 8278
21 22434 5540
22 20481 5647
23 18821 6440
24 17586 7342
25 36729 7123
26 36161 7435
27 35840 7091
28 35023 9526
29 37590 13311
30 37551 16687
31 33544 18028
32 30839 17039
33 27758 16988
34 23561 17636
35 21799 17693
36 21002 18177
37 19697 18319
38 17284 16090
39 16404 16213
40 16322 14285
41 10685 10997
42 10012 10426
43 9651 12974
44 9215 14489
45 5780 17864
46 5203 17583
47 3959 17483
48 2754 15231
49 3071 11850
50 3636 10801
51 2525 4237
52 2426 3655
EOF
