NAME : lhk
TYPE : TSP
DIMENSION : 176
EDGE_WEIGHT_TYPE : EUC_2D
NODE_COORD_SECTION
1 80000 20000
2 86268 17591
3 84359 34083
4 82929 49585
5 85037 28224
6 83476 50271
7 70750 54305
8 67241 50237
9 64671 50237
10 69144 67347
11 60746 53033
12 60614 55333
13 54105 57330
14 64004 65133
15 64495 65566
16 56964 63859
17 53696 65429
18 51189 73359
19 49126 72846
20 34423 65170
21 35418 82707
22 50285 66889
23 55248 76243
24 52449 76374
25 49204 76067
26 39305 79367
27 50897 88804
28 39501 78692
29 37402 80633
30 24240 82673
31 27364 85546
32 28309 84201
33 31239 81320
34 27400 81230
35 28826 79756
36 29584 75682
37 30763 67762
38 37402 80633
39 41596 71474
40 31785 69472
41 44602 68936
42 30715 67873
43 37028 63379
44 44400 60686
45 72241 58393
46 80064 60541
47 85473 63833
48 80462 60740
49 79966 58520
50 46755 59359
51 37694 62921
52 34140 63457
53 32121 65707
54 28221 67310
55 11063 65726
56 10706 69273
57 9089 88789
58 6918 80063
59 10766 78996
60 9315 88803
61 10951 90617
62 19803 89442
63 18225 89801
64 21813 86185
65 30291 90094
66 27685 91068
67 42784 89795
68 33946 90630
69 40075 90051
70 47647 89336
71 44125 89669
72 50710 89046
73 40458 90015
74 55739 88571
75 57872 82888
76 55739 88571
77 56712 89225
78 57519 90178
79 71296 91031
80 68753 82382
81 69408 90211
82 69108 87918
83 73004 90631
84 73801 90272
85 77012 91521
86 86577 86552
87 85813 83191
88 74453 62459
89 69210 82568
90 64890 71574
91 72241 58393
92 71123 60108
93 69285 82598
94 67324 65661
95 46672 65413
96 11428 75013
97 11051 74776
98 30246 77966
99 26342 64147
100 26298 70241
101 10823 71742
102 6804 47243
103 4846 50934
104 10805 48606
105 5525 53980
106 6420 51764
107 10558 66833
108 5638 52416
109 11091 64844
110 8500 63627
111 8306 57407
112 8807 52016
113 10390 29820
114 4846 50934
115 7247 42040
116 9976 31921
117 10179 31169
118 11980 15517
119 31174 27778
120 11980 15517
121 13151 15907
122 28431 15460
123 31175 17310
124 29095 22338
125 30008 25168
126 28617 26459
127 32460 17407
128 32454 18390
129 42269 17769
130 45058 22242
131 41065 23190
132 46141 41946
133 41325 43870
134 45751 39370
135 41215 46388
136 25460 50482
137 30283 42665
138 33727 40226
139 35233 15436
140 37018 19855
141 31306 39975
142 31627 35595
143 24181 45590
144 6682 44133
145 7456 42804
146 16960 43873
147 31007 37829
148 17668 43218
149 24709 45297
150 30319 56212
151 32006 32270
152 22875 46316
153 22803 53251
154 20965 47377
155 20508 52550
156 10824 62117
157 10868 61055
158 25299 60738
159 19845 58386
160 27866 51103
161 46785 59269
162 36564 67763
163 36621 50530
164 41498 47178
165 52922 49189
166 51880 37060
167 50260 43795
168 51917 56977
169 64862 51481
170 50021 47158
171 51880 37060
172 70609 50175
173 51819 37112
174 58215 27963
175 66515 16047
176 69833 14047
EOF
