NAME : lhk
TYPE : TSP
DIMENSION : 133
EDGE_WEIGHT_TYPE : EUC_2D
NODE_COORD_SECTION
1 100000 100000
2 56587 115600
3 49932 126159
4 56050 143572
5 56814 142318
6 62118 148844
7 70855 149046
8 89251 154680
9 104179 154999
10 105687 153225
11 112124 151162
12 131626 150523
13 140574 151659
14 143525 137378
15 144365 121795
16 144302 96781
17 149921 84323
18 151688 79439
19 148364 70480
20 149048 50741
21 167287 71848
22 171676 69457
23 170470 45011
24 170417 52140
25 166775 47644
26 165901 43072
27 143705 27229
28 129953 24999
29 119799 24997
30 109846 24998
31 99903 24999
32 97047 27905
33 88818 24929
34 84004 24163
35 83414 25601
36 68261 25152
37 64033 24150
38 63086 22225
39 56666 22453
40 54999 26339
41 41323 23859
42 27273 21862
43 168710 44916
44 173054 37805
45 173876 32906
46 175521 23941
47 166213 24255
48 156904 24508
49 147874 24771
50 147032 22109
51 171532 90320
52 168602 100098
53 172963 107894
54 169477 118190
55 171358 127172
56 171550 129650
57 168535 129789
58 169999 145047
59 171318 149963
60 167152 148011
61 173820 157138
62 176363 175684
63 171277 175081
64 164456 173951
65 157468 175325
66 156789 172341
67 148734 175080
68 139982 175000
69 144264 174044
70 137954 178939
71 124372 173993
72 122127 171166
73 101580 170395
74 80498 168118
75 47419 145338
76 39314 144976
77 33605 145672
78 28827 149698
79 28581 160133
80 27906 175444
81 25415 173406
82 25575 176698
83 44186 175918
84 38242 164844
85 41707 170588
86 50601 175018
87 60277 175003
88 54819 173553
89 67863 175230
90 73895 172920
91 83517 175638
92 95000 176339
93 102526 174675
94 112763 175389
95 113897 172922
96 112912 177945
97 97242 175387
98 31457 131751
99 27523 131587
100 34819 106446
101 26286 107223
102 27826 97889
103 30727 91255
104 30333 82437
105 27676 81409
106 29127 74961
107 31030 70577
108 30000 64951
109 29466 61776
110 29835 53194
111 31367 49953
112 29999 44991
113 30989 40663
114 31177 39708
115 29280 31274
116 25499 33351
117 55648 104003
118 55501 103350
119 57154 91986
120 58350 78171
121 57811 62086
122 60456 57985
123 58540 60201
124 57167 51973
125 61583 50399
126 88161 49188
127 82024 49682
128 102440 48040
129 111011 45051
130 127170 48030
131 137838 28790
132 143728 47210
133 118964 30569
EOF
