NAME : lhk
TYPE : TSP
DIMENSION : 146
EDGE_WEIGHT_TYPE : EUC_2D
NODE_COORD_SECTION
1 80000 20000
2 76501 15417
3 59912 19987
4 26575 23172
5 23622 17329
6 14059 13936
7 10983 18075
8 12119 26677
9 10389 25350
10 26575 23172
11 10847 55944
12 40090 66760
13 57755 85389
14 56269 85987
15 63414 87538
16 56426 88055
17 56421 88080
18 66628 87006
19 69872 86106
20 75275 87858
21 75784 89107
22 68790 88705
23 80843 88379
24 81205 88073
25 86112 81139
26 70233 66932
27 59439 64890
28 62102 68373
29 70623 67921
30 70498 66919
31 57636 75010
32 63043 70572
33 67715 68938
34 71975 47625
35 70233 66932
36 56215 59813
37 56210 59929
38 54474 77000
39 56215 59813
40 59773 63905
41 50670 72012
42 53299 66449
43 55219 62679
44 44447 54175
45 58165 64722
46 48325 59122
47 39999 58653
48 37979 64237
49 23598 64008
50 25897 65469
51 29817 70804
52 36772 63628
53 24471 89987
54 33274 82894
55 36234 82987
56 41032 78057
57 37967 86880
58 38428 87441
59 36618 89780
60 36660 89733
61 36618 89369
62 29896 89399
63 20290 83375
64 23309 88620
65 19775 86023
66 23309 88620
67 9128 88820
68 22194 86843
69 9128 88820
70 9099 88782
71 12144 78795
72 9128 88820
73 10378 70923
74 10908 82644
75 10707 73686
76 11484 72319
77 12411 68012
78 12235 67294
79 24006 70004
80 24631 67981
81 43095 75226
82 40946 61477
83 28052 48054
84 39380 44524
85 48911 38277
86 37019 38980
87 46280 48439
88 46996 38510
89 58256 34886
90 56209 34815
91 55949 36403
92 48911 38277
93 58256 34886
94 58966 42079
95 59976 42060
96 63596 42838
97 74799 51445
98 77200 49942
99 84878 80037
100 87310 49177
101 86918 34219
102 89683 19816
103 45032 48827
104 36772 63628
105 39863 60476
106 50670 72012
107 50278 74061
108 52887 88183
109 50667 89954
110 50533 88222
111 52887 88183
112 34986 88448
113 34186 86768
114 23309 88620
115 10707 73686
116 9655 77650
117 10001 84079
118 18675 60774
119 15348 61326
120 13816 58269
121 18675 60774
122 23598 64008
123 25736 60690
124 22221 56365
125 12280 48136
126 9544 47651
127 11760 46530
128 10188 46404
129 10204 46069
130 26069 45990
131 10188 46404
132 31418 39449
133 26069 45990
134 26053 45744
135 34996 50617
136 32128 26467
137 34358 21051
138 34090 20457
139 36627 16321
140 33354 20761
141 27968 26350
142 23215 28524
143 36250 62278
144 34358 21051
145 54634 21003
146 66421 15588
EOF
