NAME : lhk
TYPE : TSP
DIMENSION : 993
EDGE_WEIGHT_TYPE : EUC_2D
NODE_COORD_SECTION
1 80000 20000
2 15305 95194
3 36466 75361
4 16703 68554
5 3555 27135
6 36646 94883
7 66419 32101
8 33432 36404
9 22034 10563
10 58130 67873
11 21488 39924
12 23905 43867
13 56329 84412
14 22436 89463
15 13418 70966
16 9069 101230
17 33851 79018
18 13564 101591
19 56926 78491
20 50160 31235
21 26782 99666
22 31905 62405
23 33833 95716
24 58218 94774
25 65480 23113
26 95509 90418
27 31410 29036
28 59813 28721
29 30332 103811
30 72393 42756
31 41494 60079
32 18679 88907
33 19618 38536
34 89651 34108
35 22056 56183
36 57594 60035
37 36166 91712
38 25582 54938
39 26259 40174
40 2421 99707
41 50784 84881
42 34536 77465
43 69074 84827
44 61195 51792
45 17990 95878
46 57624 45534
47 10965 41677
48 4663 51624
49 14124 83878
50 34561 59084
51 18864 91173
52 72600 79707
53 63755 98294
54 30135 92119
55 39281 62761
56 59786 23859
57 37595 61782
58 2086 46777
59 20493 85504
60 29875 67028
61 26935 78958
62 8015 25173
63 47259 92195
64 49556 43420
65 27494 23849
66 18355 38989
67 50931 40938
68 71878 64705
69 66553 60391
70 48289 45057
71 61689 51072
72 70089 79726
73 36053 93770
74 40577 89227
75 3735 26161
76 10200 72476
77 20119 77051
78 6421 71721
79 28616 41760
80 26435 54217
81 30158 77119
82 25665 71526
83 43291 74685
84 70790 77609
85 52553 62464
86 52157 55597
87 -2373 31331
88 16918 42989
89 26856 81391
90 36835 52741
91 5686 77635
92 45684 64225
93 32067 90166
94 17823 84211
95 51722 73289
96 13176 83501
97 36197 93092
98 16014 70793
99 96444 29829
100 13704 73599
101 13145 55182
102 46251 58016
103 61276 57596
104 59229 669
105 36780 71766
106 54054 107374
107 7005 89827
108 102254 52362
109 2319 79525
110 48426 78249
111 74215 64957
112 35761 20973
113 58062 72935
114 25206 66425
115 5374 62954
116 20106 91660
117 -3022 39281
118 63561 50759
119 61974 87837
120 5256 74686
121 23019 92669
122 22448 26463
123 -2186 64684
124 9906 46793
125 20196 78400
126 15012 37230
127 57411 79501
128 41561 53171
129 1865 46773
130 39622 89477
131 15092 58686
132 15630 56324
133 24400 68730
134 11046 33792
135 35473 74609
136 68206 94897
137 82446 58400
138 34766 68467
139 5612 83865
140 44336 95649
141 52093 83340
142 32824 82793
143 23825 48483
144 69868 49719
145 51101 70329
146 61041 82229
147 44724 97287
148 38337 56025
149 20102 34858
150 69446 98123
151 30011 93386
152 31050 40820
153 74481 67570
154 14369 83338
155 21403 45874
156 42816 43763
157 48050 94554
158 6016 49930
159 60717 95578
160 73299 75807
161 35726 31069
162 63595 62092
163 11275 65954
164 40106 56213
165 49479 28064
166 33248 96731
167 2746 54675
168 22029 90548
169 25528 77488
170 4986 90988
171 95201 46222
172 37697 65962
173 37402 88416
174 65462 66485
175 16484 49428
176 43778 64136
177 61470 11152
178 50673 92045
179 3856 85390
180 51219 83261
181 40807 48034
182 40873 101271
183 16178 49817
184 19706 93218
185 17154 69988
186 53285 92116
187 50491 49989
188 -1802 16587
189 57287 53359
190 27757 80794
191 63941 54214
192 35063 30718
193 12763 64041
194 45908 77143
195 43399 44020
196 71881 41132
197 21083 64903
198 46430 43922
199 92083 47270
200 9519 98759
201 3236 98229
202 87734 63093
203 58718 89644
204 936 81994
205 88224 74234
206 22960 37599
207 40995 89953
208 3706 68205
209 51849 62900
210 47203 32035
211 45370 48784
212 11140 11421
213 11316 43886
214 2721 108088
215 5173 58917
216 37956 77757
217 47766 60427
218 56039 38839
219 4546 57019
220 17176 71373
221 22132 70603
222 27363 23986
223 6300 36873
224 39511 87310
225 4618 82784
226 35016 62298
227 36447 76143
228 22231 97453
229 14596 44088
230 62342 79833
231 24718 92767
232 22474 92125
233 74013 51766
234 30676 60497
235 -6069 62348
236 50463 59591
237 9978 91867
238 37217 53398
239 56573 69384
240 45262 93537
241 10208 84494
242 36113 81863
243 82491 55482
244 86915 13314
245 20391 87956
246 48495 83865
247 27306 19636
248 7685 96157
249 41322 74157
250 18138 84119
251 41326 33738
252 79151 101432
253 40059 67533
254 29870 83125
255 21532 16874
256 3567 77486
257 43618 83695
258 41276 35668
259 -3002 22659
260 51753 90839
261 88739 9079
262 36140 25475
263 51135 53808
264 13689 82471
265 40888 59217
266 36431 92304
267 21795 77296
268 26533 64184
269 11739 17455
270 32231 52598
271 45118 83259
272 41637 97231
273 12397 67980
274 62444 92653
275 81374 44629
276 22599 68657
277 47601 46593
278 -4005 71027
279 30450 31964
280 15413 53421
281 44606 79908
282 42817 57324
283 51784 68653
284 8090 36479
285 16115 15450
286 78172 99988
287 54847 57131
288 29405 9000
289 20167 86310
290 42761 28714
291 70197 72166
292 35629 67521
293 38095 82274
294 58799 46148
295 42991 78760
296 67059 22417
297 27881 83139
298 70646 84583
299 -6494 81805
300 812 27746
301 -3486 79578
302 11348 91314
303 28530 39173
304 1243 57739
305 14524 88131
306 48645 85366
307 18334 97691
308 35067 31537
309 28663 57296
310 43113 96584
311 37272 15699
312 100898 79103
313 8228 42467
314 51895 95551
315 60732 37274
316 57758 85131
317 4871 83302
318 65261 88271
319 64250 95084
320 50576 88167
321 48687 88414
322 6925 76214
323 86146 91467
324 70135 43110
325 22922 53360
326 15445 80791
327 20291 74731
328 30603 75297
329 2927 31327
330 10972 56277
331 -1855 44056
332 -2866 17991
333 79696 69766
334 24118 70236
335 81261 66729
336 51316 77099
337 15238 56204
338 31204 20302
339 12677 67607
340 22389 76632
341 58225 79329
342 7751 43755
343 42647 57025
344 37172 96509
345 54041 97889
346 100804 17702
347 6042 67134
348 1348 62628
349 19607 16041
350 26306 60460
351 50024 75158
352 33428 10572
353 17648 56263
354 77408 88355
355 28823 25075
356 60381 30718
357 39640 42103
358 62505 43951
359 64215 46198
360 30175 70816
361 14978 83342
362 17702 72952
363 6842 15284
364 36326 18500
365 5723 78252
366 27978 59802
367 22601 20918
368 65360 91752
369 31901 92412
370 52165 85869
371 33327 65084
372 -1955 65468
373 101637 85464
374 12280 39759
375 9103 76588
376 43094 91698
377 -14 58355
378 60358 41147
379 51208 76415
380 38562 26071
381 2559 98533
382 -6316 60382
383 25262 71632
384 85609 59245
385 8366 43017
386 77365 74035
387 14020 91405
388 74516 47762
389 36484 46004
390 34332 91501
391 30594 70948
392 24098 50107
393 43751 85306
394 65322 55762
395 43986 92752
396 60419 83507
397 56765 62861
398 27954 42649
399 22939 72426
400 13726 79619
401 8976 78655
402 3824 77481
403 14660 21897
404 14696 47508
405 34478 64821
406 810 104591
407 49673 84374
408 28214 19530
409 47130 94660
410 28960 96234
411 44213 65338
412 20219 77477
413 -3287 25060
414 31074 49752
415 26548 35364
416 55774 86289
417 41536 91413
418 80658 71578
419 20709 83926
420 59256 27292
421 66167 55997
422 52797 41539
423 19605 57768
424 17108 44342
425 22723 86402
426 75118 46496
427 -3060 85371
428 10839 71090
429 26662 85320
430 6322 71968
431 25073 97819
432 19584 76892
433 55448 77163
434 5247 78979
435 55181 100006
436 8270 100024
437 7847 81572
438 47146 92388
439 24659 51992
440 29719 20083
441 51747 65575
442 30369 101465
443 12101 102735
444 21274 74440
445 2485 85113
446 2536 72289
447 10302 88934
448 -4276 89711
449 38201 96053
450 45296 85339
451 88968 75806
452 20316 71551
453 43090 43095
454 49416 71792
455 25227 83470
456 2923 17246
457 28520 90400
458 6400 76090
459 54577 37174
460 48008 73808
461 61209 76249
462 52182 52343
463 20776 84498
464 9475 41789
465 70835 97920
466 71230 85568
467 68707 44649
468 47992 36701
469 55994 61065
470 18044 83409
471 34666 93081
472 43527 65727
473 38287 45446
474 86779 91458
475 19103 16780
476 22722 44997
477 17769 42877
478 65867 85990
479 64631 72398
480 21035 80224
481 34682 35221
482 68484 80788
483 15384 70060
484 100594 18564
485 40036 64820
486 63939 54843
487 27509 22754
488 16627 76601
489 25584 10169
490 8339 46211
491 25975 85881
492 25331 96324
493 50797 53431
494 28876 52613
495 80810 99241
496 19962 80824
497 10689 54862
498 96076 58715
499 47931 65368
500 -7508 48941
501 14060 72698
502 22148 68008
503 18576 61123
504 17052 66715
505 64110 24049
506 15337 55767
507 83410 63712
508 30328 62296
509 30052 49388
510 71468 74522
511 37236 50965
512 46780 103805
513 44834 39770
514 49026 71009
515 -1990 33228
516 60069 67785
517 52786 88207
518 2764 57951
519 42095 6668
520 52258 52380
521 87105 27614
522 26627 99099
523 46529 58342
524 40312 67864
525 17906 75317
526 21752 48262
527 23628 72865
528 -1957 54964
529 83558 69974
530 26575 34836
531 48829 94764
532 5523 61677
533 50741 98219
534 39753 67027
535 9622 53421
536 34490 50383
537 46488 92947
538 25389 76257
539 61086 46906
540 43678 98275
541 35691 67927
542 46188 103907
543 9405 49432
544 18486 43755
545 65754 94622
546 25420 53931
547 -3568 78595
548 1878 79780
549 37766 86254
550 26446 39614
551 24578 81298
552 16398 81527
553 19907 64896
554 62402 48445
555 10115 83856
556 49472 27508
557 2418 73944
558 10161 91776
559 40686 58806
560 45850 100283
561 11813 83901
562 39827 82355
563 46174 81344
564 44481 87835
565 38637 78788
566 21480 65043
567 39676 43508
568 60862 84903
569 11346 83723
570 37475 95147
571 2581 81810
572 29452 76333
573 10170 24018
574 37854 11332
575 20610 71487
576 58877 86011
577 41808 60839
578 56048 69160
579 33875 85665
580 74985 73938
581 71886 103536
582 60379 18473
583 43571 76158
584 77608 49717
585 62648 107333
586 1194 98530
587 44773 25629
588 27171 58482
589 757 14974
590 20579 58776
591 91919 30712
592 36572 75994
593 78500 37402
594 29027 90220
595 57980 41119
596 54954 69683
597 36606 70429
598 44990 56027
599 70078 12673
600 34119 61955
601 13170 77710
602 29498 66155
603 25251 27681
604 40548 50060
605 31148 81231
606 58735 70078
607 61973 33994
608 3597 77567
609 18994 71694
610 85172 44364
611 26266 92657
612 27162 107706
613 24707 33759
614 37078 92088
615 46392 85132
616 13727 82876
617 18103 41691
618 46059 65868
619 56157 85929
620 31647 44567
621 61967 106915
622 48101 55110
623 56579 82969
624 57096 46669
625 50701 109952
626 50002 55087
627 20894 15970
628 96233 7460
629 10650 90840
630 8436 14285
631 16696 67756
632 32779 97525
633 51419 73677
634 19629 62110
635 59886 37040
636 23168 72175
637 41316 76183
638 5681 94569
639 27245 82650
640 3399 78474
641 35244 58736
642 24225 24996
643 47471 86232
644 23230 19342
645 73995 45449
646 25640 65041
647 5680 21618
648 65790 66536
649 77477 81278
650 42398 85601
651 64346 69664
652 12764 94885
653 7538 37672
654 45530 20318
655 65980 74165
656 20717 41031
657 78746 58651
658 5609 73117
659 19984 80620
660 49799 85741
661 90428 65087
662 17616 24006
663 43988 73215
664 16618 53340
665 30941 36878
666 3696 74947
667 73495 87523
668 2837 71713
669 60318 67746
670 27499 7061
671 72060 44397
672 61687 81475
673 24985 82758
674 11352 34223
675 10610 8836
676 73980 45695
677 43162 63682
678 4589 66149
679 10247 91761
680 30917 36082
681 9890 69269
682 42285 34924
683 7089 14711
684 33600 66883
685 83020 61469
686 90248 84209
687 6125 67876
688 41392 40492
689 31972 40680
690 29330 77666
691 57585 91114
692 13241 66184
693 44383 41264
694 7675 96127
695 -9381 71517
696 19985 87428
697 16511 83583
698 29910 73219
699 26135 48609
700 19557 83197
701 14370 37703
702 16311 74125
703 20507 8734
704 14844 56349
705 35897 16024
706 18314 54440
707 43131 37013
708 33772 96662
709 -861 54784
710 39233 28460
711 17024 30966
712 12170 98581
713 14467 100282
714 52659 95949
715 21243 100807
716 39653 67472
717 39855 38868
718 6162 67871
719 7051 87447
720 2757 95598
721 27941 66463
722 70339 2504
723 9417 10100
724 26629 34940
725 45549 75663
726 82251 89081
727 21480 85389
728 73382 69651
729 13853 76340
730 28182 67897
731 20813 69562
732 7962 43199
733 47964 53506
734 21035 59731
735 293 63574
736 19126 56463
737 2104 79659
738 56400 92772
739 31711 94662
740 13336 64826
741 89655 82926
742 13518 31967
743 85692 87051
744 49585 74470
745 68723 82956
746 68268 43052
747 54956 94727
748 10737 57481
749 25157 41915
750 17034 44722
751 16077 99506
752 52789 43270
753 42147 95653
754 22940 87813
755 52541 87933
756 41818 78632
757 34138 55529
758 33306 84626
759 11229 48877
760 3190 82542
761 13943 66928
762 28391 84550
763 57855 65603
764 41538 101905
765 14003 56923
766 34439 69779
767 39060 99066
768 66342 56452
769 29055 94745
770 47754 83692
771 3096 42587
772 24631 50072
773 22552 64900
774 24985 80133
775 54083 91576
776 69317 90408
777 19864 101061
778 58383 16512
779 33060 48379
780 46042 67139
781 13062 80708
782 59234 31584
783 52134 75639
784 38262 49604
785 6672 70266
786 51581 31846
787 21867 96538
788 30572 22803
789 26967 66340
790 31798 66353
791 40817 38556
792 56027 57416
793 6129 89832
794 52309 55349
795 6986 29998
796 23965 82280
797 22108 84659
798 21182 45754
799 51490 55850
800 -311 65096
801 55961 74692
802 60315 81059
803 49392 76963
804 9365 93031
805 43710 61325
806 19656 58096
807 26547 81617
808 44154 83582
809 29354 92154
810 44576 67916
811 56342 63338
812 36020 39794
813 1280 3229
814 77567 91904
815 46514 87623
816 11736 83960
817 56834 87234
818 70201 93739
819 75923 81048
820 64774 11981
821 69982 97619
822 63046 30937
823 34584 24875
824 69821 91206
825 20936 33865
826 17812 74538
827 46443 88078
828 8906 98010
829 52957 42805
830 23196 33918
831 2079 79155
832 62430 29007
833 64438 67823
834 18868 102272
835 37014 35763
836 84185 31651
837 11742 25260
838 76236 66802
839 83461 49055
840 25970 54833
841 32454 78937
842 10956 52085
843 65151 49653
844 48729 52952
845 58589 32593
846 66897 82804
847 19647 64026
848 60516 70177
849 42842 55958
850 2021 55079
851 76561 52305
852 54010 99144
853 73670 73265
854 33853 29049
855 73354 93601
856 50207 66505
857 57460 98230
858 42870 67890
859 14397 42835
860 17523 85820
861 5866 76003
862 50912 80468
863 36719 41995
864 5783 43106
865 82151 87056
866 48282 38133
867 49934 96716
868 69030 76903
869 1525 90132
870 24014 28483
871 49590 44537
872 29209 88544
873 27297 74240
874 41866 26875
875 43707 99035
876 58215 45032
877 36951 58434
878 44311 93884
879 41229 73175
880 9876 67869
881 48613 86543
882 3154 9157
883 52243 103360
884 43622 19690
885 92306 53758
886 25757 86648
887 19103 80254
888 44976 85762
889 22858 73003
890 92044 93188
891 2651 66673
892 31863 59440
893 7753 82031
894 82427 90829
895 54560 67281
896 49166 76866
897 54364 99013
898 21272 66138
899 -1786 36229
900 23379 23749
901 72914 68753
902 19537 58269
903 21707 21602
904 32733 74638
905 60805 79031
906 6889 80584
907 52837 43756
908 64370 61740
909 18419 52575
910 7999 50741
911 32273 70465
912 51023 91563
913 32409 59547
914 26086 60065
915 1573 85293
916 20974 27423
917 18640 96921
918 37476 41086
919 33148 91644
920 35779 88242
921 78215 47851
922 55263 73028
923 34112 53660
924 47301 50963
925 12780 62502
926 -3189 51146
927 76986 51094
928 21706 77065
929 82720 93551
930 45255 56245
931 54044 48192
932 63349 79650
933 90086 49215
934 9838 101293
935 39647 26171
936 52616 34426
937 11247 53005
938 73313 82247
939 27140 51881
940 708 56426
941 49024 74632
942 75755 51908
943 65683 56544
944 25635 28550
945 2785 79186
946 43682 52501
947 17446 72438
948 48905 91237
949 15045 70184
950 11074 40138
951 26885 77329
952 86062 54001
953 42523 88509
954 -4228 95174
955 31478 78260
956 14373 76896
957 26553 58070
958 26924 64893
959 15149 36480
960 52073 26371
961 31650 99476
962 56116 105330
963 74146 67532
964 4776 23646
965 45606 66947
966 33877 57995
967 2594 65812
968 85691 49686
969 55535 75617
970 -1806 85371
971 10890 58415
972 29677 60127
973 1675 53217
974 25272 90428
975 41004 105184
976 74291 68137
977 48499 72571
978 87621 57071
979 48214 49522
980 87995 7065
981 57394 100384
982 28497 66127
983 4823 92154
984 81214 94189
985 66019 95056
986 10384 39227
987 55349 61853
988 67918 72732
989 4079 100314
990 34234 48241
991 17099 38251
992 4253 74993
993 54415 88489
EOF
