NAME : lhk
TYPE : TSP
DIMENSION : 993
EDGE_WEIGHT_TYPE : EUC_2D
NODE_COORD_SECTION
1 80000 20000
2 18610 96420
3 35565 93148
4 6839 53947
5 1791 23714
6 44736 96002
7 58523 21299
8 36402 34083
9 17173 -721
10 54490 72574
11 20778 39725
12 20914 44093
13 50287 80365
14 17981 99081
15 -5960 64744
16 13648 97921
17 24219 68360
18 16636 92073
19 67407 75853
20 39498 31826
21 37624 103518
22 25551 69890
23 31300 92351
24 53813 99680
25 65232 19968
26 94933 85148
27 39589 20886
28 64562 29680
29 25518 102559
30 72484 51402
31 34701 65351
32 10620 80631
33 18642 39321
34 87286 39507
35 22958 68846
36 54678 59508
37 25605 94679
38 30163 46830
39 31905 31930
40 3821 96304
41 53639 77738
42 22175 81156
43 71355 92029
44 60148 41702
45 23097 88616
46 66540 41291
47 7324 43594
48 8927 56873
49 24007 81674
50 36864 57839
51 9906 93651
52 65706 76168
53 68607 98726
54 39124 95804
55 42617 63477
56 56432 28867
57 32358 65375
58 5215 46729
59 24070 89044
60 26711 53921
61 36636 78647
62 5054 7519
63 52279 101554
64 53104 43901
65 38911 14395
66 20482 34712
67 42609 40165
68 70291 71272
69 66019 66640
70 52974 40904
71 67403 54408
72 68189 79650
73 36659 100106
74 39551 89859
75 3313 32694
76 -823 86213
77 28773 87769
78 6603 62497
79 18980 39924
80 19746 55157
81 39838 71381
82 22773 66866
83 43529 81515
84 69754 75136
85 60499 65647
86 58612 58052
87 4866 41128
88 5046 34346
89 27463 87203
90 36576 55065
91 1065 80954
92 52033 63561
93 39014 82136
94 15502 85751
95 59707 72042
96 11873 85581
97 31781 88259
98 12139 71908
99 99812 26347
100 23032 72318
101 -1925 51128
102 56862 47799
103 68280 55419
104 62516 4346
105 34194 69879
106 43733 100327
107 -5781 95833
108 82698 47087
109 3953 86402
110 48533 64864
111 74472 61378
112 35328 21647
113 55264 72104
114 16672 73245
115 8280 60606
116 27564 98559
117 -4424 50750
118 63229 52374
119 62070 83936
120 15932 69532
121 29252 92261
122 19056 34127
123 2099 54018
124 8210 46995
125 29877 72389
126 13171 37069
127 57953 83731
128 40590 54285
129 2422 46206
130 37143 93962
131 18896 67388
132 17964 62127
133 23405 55135
134 6636 22836
135 43626 70698
136 87782 99221
137 86043 52818
138 30994 65774
139 13338 87271
140 32295 98526
141 49622 80202
142 32595 85686
143 20612 47790
144 75824 43903
145 45220 78213
146 73303 88101
147 35706 90217
148 39665 58262
149 15381 52444
150 67360 88042
151 29243 90555
152 30780 36409
153 76620 69280
154 828 91155
155 14410 41447
156 46880 39039
157 49784 95562
158 -5183 40445
159 70632 92777
160 72587 83426
161 31515 21783
162 48456 63589
163 13140 71112
164 42345 68686
165 47989 29234
166 46904 92312
167 -2398 49302
168 26361 85001
169 22554 68831
170 3862 83794
171 91547 60401
172 37749 67299
173 43504 87696
174 65622 67400
175 20993 45304
176 37592 64333
177 72001 16985
178 65660 89966
179 -3422 87969
180 48554 80034
181 47152 53258
182 46949 102910
183 16673 59435
184 12458 96250
185 11016 76044
186 66724 96057
187 51840 53871
188 -6309 25392
189 52413 55875
190 27700 86929
191 65254 56497
192 28124 32160
193 12117 63789
194 47040 84544
195 44972 44140
196 81350 57063
197 2804 55635
198 48504 39217
199 83958 54061
200 10072 90906
201 12260 107009
202 75836 74500
203 62814 90665
204 6406 80106
205 87428 75435
206 17002 39793
207 42667 92825
208 -3158 67408
209 53075 63466
210 41257 30010
211 40926 53654
212 12780 17376
213 7346 34789
214 670 96018
215 6147 56092
216 40636 81079
217 49349 56626
218 53242 45722
219 11352 59678
220 4325 60165
221 19395 78734
222 16795 22096
223 13568 40438
224 27881 76477
225 6514 84879
226 43971 65826
227 34807 78649
228 19335 93207
229 4655 43509
230 57872 83351
231 35804 80371
232 33346 91035
233 71298 42675
234 18543 61668
235 2322 60772
236 39080 63701
237 8821 98482
238 44031 47566
239 70940 57655
240 52884 101962
241 13485 85367
242 31416 84487
243 79775 53069
244 96443 16375
245 14482 83604
246 56015 78827
247 36395 20590
248 15575 84337
249 46993 76795
250 15371 89508
251 50098 28633
252 66011 88704
253 38624 87261
254 26202 97205
255 21208 29946
256 3493 66664
257 27475 90651
258 50158 30002
259 9707 32431
260 54939 83180
261 83223 5388
262 37876 20845
263 52562 52301
264 3330 87964
265 47966 55545
266 41717 94453
267 23183 70211
268 31192 61341
269 12986 35341
270 35524 43752
271 37248 77939
272 30683 94027
273 8792 77223
274 64701 89843
275 80128 39895
276 25697 68580
277 42180 47321
278 2405 72591
279 24469 34294
280 16670 57830
281 54547 83742
282 48261 57775
283 56257 58953
284 8018 40442
285 35444 14891
286 70171 93446
287 51445 68168
288 39732 7351
289 18335 92578
290 51501 35100
291 57214 74807
292 40694 63467
293 32809 87373
294 53913 58497
295 42645 89694
296 72541 25937
297 29212 82761
298 59778 91815
299 2867 62777
300 2344 25354
301 622 91524
302 6762 89309
303 31439 51099
304 10146 63732
305 8645 93651
306 47020 90744
307 29293 88598
308 25415 29019
309 29405 71275
310 36764 86581
311 37079 16516
312 97336 71377
313 765 38740
314 52859 84458
315 57987 33039
316 60248 66754
317 9912 86836
318 58182 78911
319 62169 98105
320 42156 72819
321 41647 88818
322 555 83212
323 83448 95058
324 70156 39909
325 22041 51463
326 10787 82898
327 8602 74934
328 23490 70089
329 4092 50673
330 30655 62855
331 7475 43920
332 16644 26151
333 80511 72598
334 24489 79726
335 73844 63440
336 58953 82401
337 18278 58519
338 36737 20074
339 9759 64887
340 9775 84578
341 53388 66858
342 7338 48567
343 53124 49084
344 56627 88906
345 58229 100380
346 96618 25863
347 -1144 74856
348 -6923 63695
349 3061 8649
350 30934 68752
351 53150 71186
352 20740 12142
353 12352 50948
354 75663 97985
355 24660 23019
356 56896 45697
357 47319 40902
358 64471 44835
359 69178 37915
360 32270 69229
361 22815 87864
362 21751 75312
363 12602 20513
364 36539 20444
365 5783 86048
366 35622 62828
367 18591 17219
368 53372 93438
369 19604 90245
370 48683 83965
371 37263 56383
372 3984 66463
373 90402 82524
374 4224 47496
375 17187 77803
376 46904 90025
377 14281 72148
378 60259 33041
379 61474 85428
380 31617 27246
381 6459 98357
382 2572 70952
383 21718 63276
384 76249 71032
385 4291 36800
386 83103 68226
387 16899 82825
388 86065 56166
389 33125 42078
390 39515 100679
391 32220 71828
392 13422 57021
393 41227 87264
394 63241 73153
395 40891 87323
396 62084 70938
397 51911 59373
398 32725 42871
399 12069 77913
400 3144 92712
401 24239 74349
402 1626 87556
403 13643 21714
404 23741 48145
405 31025 70674
406 4307 104991
407 56190 87791
408 39748 12823
409 50456 93474
410 23863 99291
411 44152 68357
412 24339 72132
413 12854 14690
414 28933 48246
415 22355 34303
416 48816 81978
417 37396 88620
418 76185 81470
419 33679 81714
420 51986 21603
421 71186 63340
422 53067 39617
423 22911 56887
424 22086 44206
425 23533 86348
426 72507 52322
427 538 85040
428 7488 74765
429 21082 81953
430 15974 72949
431 34081 103827
432 25883 80632
433 63188 81941
434 15559 77584
435 54040 109518
436 8134 108145
437 6363 81777
438 39528 86714
439 30139 48526
440 21192 27993
441 60011 67040
442 20175 105226
443 14172 93444
444 15616 73640
445 -5286 83188
446 9838 79425
447 10777 92473
448 5167 89963
449 47633 90128
450 47893 91703
451 102564 74131
452 28456 54327
453 44820 44021
454 48026 65170
455 35162 72399
456 7439 29513
457 24680 97794
458 11539 83792
459 54589 39885
460 29624 68483
461 63910 80342
462 35873 59638
463 15016 94240
464 8504 48150
465 56304 86483
466 67420 81268
467 83301 45372
468 40061 31920
469 60786 74010
470 19898 91353
471 37724 101297
472 51777 62377
473 55022 39657
474 95992 86941
475 19055 28733
476 12833 44524
477 16732 45449
478 67119 83124
479 59098 56708
480 14949 73654
481 39387 30541
482 66016 87923
483 4407 63725
484 92982 14670
485 42665 80110
486 61934 52959
487 23443 22296
488 16936 78077
489 19821 6952
490 7034 48907
491 20154 85892
492 24013 100885
493 53066 44675
494 41736 53385
495 82258 93652
496 13844 86391
497 12853 35922
498 95861 62960
499 48771 49344
500 3375 30656
501 18993 78072
502 30538 69762
503 11257 61795
504 9104 72730
505 67082 15570
506 7993 39379
507 89260 62733
508 33587 63392
509 31509 46036
510 52839 74113
511 28959 63438
512 50752 97739
513 44255 54701
514 48965 67724
515 -3913 40152
516 66190 61651
517 50090 90342
518 254 69085
519 38158 10216
520 60657 52842
521 78692 41090
522 25662 100432
523 39979 52008
524 44446 66450
525 26287 64069
526 28376 47508
527 21337 67693
528 6854 60213
529 88001 63249
530 36625 46124
531 39480 85237
532 3363 70108
533 45157 106019
534 38949 56406
535 12824 47232
536 24634 48707
537 48315 86024
538 31852 75373
539 59953 50398
540 34742 81887
541 36166 70103
542 49193 89130
543 10555 47893
544 26047 48007
545 67818 96416
546 27439 54714
547 -1205 75791
548 9328 86478
549 34228 91329
550 25861 31783
551 24565 87934
552 5032 76973
553 13674 70088
554 64796 41548
555 -5683 80703
556 53109 24869
557 5241 77886
558 12767 93617
559 46390 63359
560 37786 100471
561 7821 74906
562 40196 82553
563 52779 78968
564 41419 85817
565 51879 72116
566 21935 58836
567 32634 48359
568 58499 83861
569 8548 97635
570 38087 97904
571 11057 82367
572 31662 65835
573 3346 17820
574 31985 11346
575 24167 65502
576 47254 79077
577 42716 59482
578 51021 51453
579 30670 83461
580 77074 79066
581 74422 94774
582 59802 16750
583 57135 70200
584 82452 56344
585 53155 90463
586 -4028 93905
587 40335 30639
588 30724 75784
589 20116 21504
590 10727 69095
591 85609 33518
592 31866 76680
593 75009 34250
594 20677 98734
595 50933 44536
596 65015 64328
597 28557 62650
598 48971 56146
599 55522 23225
600 16401 63098
601 24773 80361
602 19427 67287
603 22768 33094
604 36933 58696
605 29967 77481
606 59213 69835
607 58734 52124
608 1887 63766
609 28033 75479
610 73388 52183
611 26698 93790
612 27076 96771
613 20845 30058
614 35818 97718
615 41168 74548
616 -2319 75876
617 18871 41728
618 46271 74817
619 60246 86464
620 28235 44985
621 66437 96568
622 40951 50801
623 75705 83068
624 60021 52625
625 43028 96029
626 51989 67758
627 31857 21549
628 103771 23322
629 10129 88237
630 5066 5318
631 24306 73155
632 32890 92608
633 50680 73330
634 20520 46524
635 64449 39646
636 13611 77672
637 53682 84065
638 7193 92306
639 33439 80481
640 2125 68307
641 34434 68196
642 13892 22210
643 46194 80565
644 19333 15377
645 71290 52116
646 21641 65201
647 4546 21067
648 61568 62861
649 77256 82826
650 39832 79928
651 65194 58479
652 16330 83869
653 10223 55934
654 36863 21891
655 66023 72284
656 14455 44096
657 69828 49599
658 6891 73700
659 17342 65586
660 38791 76325
661 91521 73961
662 13448 25177
663 26379 66979
664 17067 43554
665 32118 37623
666 9646 70482
667 82062 84595
668 -4590 66914
669 60739 67471
670 29165 11993
671 68112 53906
672 51611 81175
673 33631 89638
674 14399 16067
675 6969 16110
676 62944 45058
677 39656 69813
678 14817 58452
679 3482 93490
680 37672 40950
681 15625 70310
682 52761 37889
683 12356 18825
684 41082 64603
685 90512 67064
686 95635 85984
687 9262 66535
688 30446 41397
689 23831 41289
690 35810 79184
691 60963 82146
692 15211 53704
693 42029 36254
694 7457 89516
695 5277 61881
696 20856 85055
697 19584 84614
698 24776 73045
699 18157 54901
700 16280 84132
701 8325 33927
702 19517 72321
703 30007 21691
704 16127 69860
705 34955 24499
706 14771 63193
707 37346 41252
708 33898 92712
709 3124 54381
710 25632 33762
711 6751 26411
712 15447 91929
713 14402 88266
714 45566 94893
715 23323 99978
716 35304 73315
717 57363 33825
718 10749 70339
719 3327 79150
720 10959 92184
721 26435 63800
722 65795 10750
723 4458 7970
724 25460 49519
725 30544 81132
726 77852 90138
727 23345 73677
728 72047 80690
729 2845 77924
730 17293 59160
731 40605 72322
732 13454 35816
733 43182 51245
734 21218 69530
735 1040 65306
736 24625 70348
737 5341 88199
738 55468 102367
739 36852 96466
740 14355 64717
741 76644 89385
742 10061 19941
743 77795 85914
744 51371 62846
745 68669 77621
746 69030 33283
747 53412 95984
748 12382 52454
749 36764 40049
750 -4293 44156
751 5546 104380
752 53408 22219
753 38980 101225
754 21142 88650
755 59727 97882
756 34271 82825
757 28416 61114
758 20270 90701
759 7138 49271
760 4143 80730
761 -3887 60863
762 23815 92028
763 59482 65233
764 50231 101317
765 18935 68506
766 31642 67116
767 36893 94838
768 73321 54707
769 30267 97665
770 54073 74343
771 11311 34551
772 6909 45588
773 23523 63120
774 25752 83148
775 47750 88228
776 75796 83062
777 18628 104555
778 63774 14789
779 30301 50447
780 43842 58804
781 10835 72734
782 52169 33540
783 62071 70926
784 39361 51109
785 1839 65159
786 57623 27918
787 27281 84954
788 24406 17706
789 28870 65629
790 34502 68167
791 29869 37513
792 54441 52847
793 -4966 82830
794 53216 57121
795 4123 31933
796 24397 86830
797 9818 81103
798 20881 55355
799 51787 62631
800 10618 62111
801 56478 73370
802 56781 89937
803 46305 80377
804 6635 88366
805 45482 60843
806 15038 50431
807 30768 76144
808 40000 83348
809 37182 89209
810 33623 61044
811 52345 61332
812 32597 44217
813 14649 7550
814 73916 87008
815 44332 88359
816 10302 86769
817 52584 83223
818 62339 94947
819 76802 78449
820 62149 23730
821 79384 97648
822 62607 32353
823 38282 27593
824 63938 88890
825 33480 22603
826 22812 82889
827 43905 79919
828 11323 93689
829 58133 34155
830 27365 33573
831 -6456 76711
832 54975 31111
833 59182 81377
834 15178 90567
835 33744 31499
836 81863 45067
837 7126 33355
838 71316 74707
839 88086 45965
840 30466 56872
841 39512 84654
842 10699 57351
843 65520 51348
844 49452 58260
845 51178 42765
846 68394 89506
847 21667 72064
848 61264 70402
849 46949 41194
850 10063 58399
851 72435 55202
852 51078 86073
853 78663 57640
854 43815 35817
855 71760 95560
856 43774 62335
857 51207 101302
858 52112 75831
859 15022 55532
860 31802 89515
861 -2119 76589
862 50859 79439
863 36338 42516
864 13220 35014
865 79697 81866
866 51152 19313
867 46563 101093
868 72365 74562
869 2562 98403
870 35621 37094
871 50581 42634
872 17997 97118
873 26442 81550
874 44805 28022
875 46568 102238
876 45002 44578
877 36797 45718
878 42033 98556
879 37275 72742
880 16092 76640
881 57662 83332
882 9506 9999
883 52593 100543
884 28468 19836
885 78832 55015
886 30979 90779
887 22790 75963
888 64625 86784
889 30928 76437
890 88712 89377
891 7473 86056
892 27234 44195
893 8081 83856
894 86191 104779
895 40457 69262
896 49493 74785
897 53103 88260
898 11396 67482
899 1978 21988
900 30844 26744
901 83408 66536
902 29019 70625
903 14620 18323
904 36246 69796
905 73195 80986
906 4266 80848
907 42272 42137
908 64908 67379
909 29760 49569
910 2731 40400
911 34453 59451
912 66515 97033
913 32460 62898
914 19569 45093
915 2880 89851
916 27734 25406
917 16755 92824
918 44778 38349
919 28995 77718
920 36415 87757
921 80503 50859
922 48035 75369
923 39829 54591
924 39255 50519
925 32005 70690
926 6936 54391
927 71039 54115
928 32409 63492
929 81702 107883
930 27511 56159
931 49995 36643
932 52466 89618
933 77705 53607
934 9738 90800
935 42533 16910
936 41541 35019
937 4883 57090
938 79651 79497
939 31549 50190
940 2076 71514
941 56617 80076
942 63893 62887
943 68089 57654
944 18993 29270
945 7187 82348
946 43350 38984
947 16582 81770
948 41192 87766
949 243 74551
950 18032 44955
951 25985 63144
952 86744 50448
953 48707 82347
954 885 88727
955 29770 68998
956 2610 79403
957 13924 63372
958 19957 63909
959 11776 38883
960 63266 23264
961 23271 106775
962 44205 103337
963 71671 64067
964 9638 28627
965 56587 71689
966 22873 70947
967 3025 61267
968 84795 53511
969 54653 54619
970 12168 92982
971 11520 76227
972 29822 65998
973 15286 59933
974 11835 87723
975 37942 99988
976 74123 70687
977 42444 75483
978 84014 59335
979 54765 47388
980 88110 482
981 49169 102821
982 14661 52022
983 16561 80222
984 86262 95605
985 67222 86074
986 8853 28928
987 49300 69904
988 62291 82205
989 2264 92251
990 45183 47282
991 9203 45627
992 -827 67601
993 54950 97308
EOF
