NAME : lhk
TYPE : TSP
DIMENSION : 155
EDGE_WEIGHT_TYPE : EUC_2D
NODE_COORD_SECTION
1 0 0
2 975 17344
3 16294 22477
4 16803 23784
5 18666 28985
6 14811 32974
7 9700 38758
8 14804 43681
9 15336 44079
10 15740 44885
11 13196 48826
12 11549 53721
13 8827 61812
14 6616 63080
15 5605 68110
16 4360 72262
17 4025 76288
18 8933 79018
19 11436 80455
20 5717 93792
21 20447 94272
22 58705 24643
23 58974 20549
24 56600 26548
25 40772 45319
26 35457 43871
27 39417 34121
28 32394 39750
29 23347 54882
30 26665 92323
31 28126 94083
32 32475 89612
33 33347 87683
34 38394 87048
35 43134 92577
36 47439 93805
37 52813 86750
38 52358 86022
39 54387 76852
40 54310 70774
41 59631 67434
42 63278 62999
43 63688 60934
44 63369 60068
45 54593 63486
46 53467 62080
47 56908 53562
48 56917 53088
49 52551 52967
50 52252 51849
51 52402 50650
52 51727 50503
53 48535 46713
54 52681 51379
55 47352 44771
56 46684 44489
57 42204 47890
58 41827 55756
59 41422 64190
60 40951 65665
61 41249 65110
62 39162 66963
63 35994 71032
64 36002 73957
65 29171 78355
66 33529 77143
67 33793 77337
68 26417 79978
69 24296 74954
70 23633 70731
71 22398 66555
72 22007 66580
73 23919 61015
74 27370 58725
75 27903 57450
76 27962 57922
77 29861 51739
78 41358 48568
79 31079 47726
80 27184 46428
81 31546 37155
82 30771 33407
83 30237 31860
84 33056 30222
85 38757 32204
86 43428 32112
87 49084 30481
88 54801 32361
89 58885 39252
90 55820 33621
91 58919 39314
92 59833 40789
93 64130 42299
94 63741 43641
95 66035 33488
96 69145 32889
97 72271 35115
98 72897 36946
99 73912 38035
100 69976 43306
101 74583 49709
102 75467 55700
103 76804 64756
104 77849 68909
105 74544 72292
106 71267 74301
107 70326 74980
108 65185 81251
109 64862 79250
110 64726 79178
111 68358 91768
112 69921 92359
113 71896 93723
114 72174 94255
115 75814 93702
116 82473 95861
117 88657 87348
118 89300 85613
119 92830 72225
120 94015 67441
121 91938 59112
122 91438 55681
123 87076 50713
124 84552 49341
125 84573 43651
126 85911 41588
127 91559 39450
128 92800 32092
129 96200 11940
130 96200 11940
131 83030 14535
132 81914 19836
133 79354 19797
134 79054 19932
135 79249 9128
136 78996 6141
137 76039 4838
138 71971 5819
139 64903 14003
140 65282 13561
141 65117 14605
142 61891 17523
143 56603 20536
144 52252 16354
145 53018 16641
146 50852 16534
147 50140 13265
148 44903 8953
149 37935 9059
150 38256 9033
151 32840 9136
152 23878 9104
153 16324 11452
154 14585 9889
155 10108 7203
EOF
