NAME : lhk
TYPE : TSP
DIMENSION : 130
EDGE_WEIGHT_TYPE : EUC_2D
NODE_COORD_SECTION
1 80000 20000
2 83236 17846
3 85916 17251
4 86540 39845
5 89480 47466
6 83586 50295
7 80867 50675
8 65838 56033
9 79595 50928
10 73767 51668
11 54975 39221
12 50308 38401
13 50615 38399
14 52517 37918
15 42819 40471
16 26832 44718
17 40736 41024
18 27305 44592
19 27009 44464
20 28151 46366
21 18988 49093
22 24443 64190
23 26387 86830
24 27328 89172
25 49343 66046
26 49696 65883
27 53692 62708
28 55440 61755
29 53699 61093
30 68028 45346
31 59264 55388
32 43084 75394
33 39761 59145
34 39832 59360
35 33851 65206
36 26602 68878
37 26927 64986
38 22427 60401
39 20877 63098
40 15105 71758
41 17585 72087
42 23751 63328
43 27936 67521
44 16769 74818
45 25704 67700
46 34452 64798
47 11555 68595
48 31841 67171
49 34300 68702
50 31624 67192
51 33003 66724
52 32602 67287
53 31032 67247
54 39761 59145
55 36737 62114
56 32557 85312
57 53852 78200
58 50612 84254
59 50841 82161
60 54212 80821
61 55895 78015
62 53365 71865
63 62078 67218
64 62109 65834
65 69168 67907
66 67222 68499
67 67180 68415
68 69637 68983
69 83329 80547
70 86198 80619
71 80332 88253
72 80357 88646
73 71265 86335
74 77536 88453
75 71485 86420
76 53822 88567
77 54403 88285
78 52088 88623
79 40979 88983
80 40326 89904
81 37745 87399
82 33179 89237
83 50369 88679
84 31417 89294
85 31508 89252
86 34027 89209
87 35021 91277
88 31737 91452
89 10551 88164
90 27586 89418
91 27568 91020
92 10508 89415
93 10978 89640
94 9684 89290
95 11109 76326
96 10666 89408
97 12102 81565
98 10395 89420
99 10990 74549
100 13997 71270
101 10799 71677
102 10449 66408
103 11468 66318
104 10963 74137
105 10349 64891
106 7752 59424
107 14091 52816
108 10938 49900
109 9156 47781
110 10208 47115
111 12349 26870
112 12508 30339
113 12120 26684
114 11295 23986
115 8733 19629
116 10718 16177
117 13618 14664
118 21522 19630
119 24565 21393
120 23670 43355
121 24842 28396
122 32782 22397
123 35828 22882
124 31834 16050
125 34517 15906
126 38742 30656
127 39079 26138
128 47265 16714
129 66167 17351
130 63848 16000
EOF
