NAME : lhk
TYPE : TSP
DIMENSION : 164
EDGE_WEIGHT_TYPE : EUC_2D
NODE_COORD_SECTION
1 0 0
2 10504 7485
3 11602 7136
4 12826 9140
5 13931 9928
6 22744 8668
7 31501 9162
8 40030 9042
9 42720 7411
10 51026 13884
11 55286 17334
12 65051 13809
13 62689 16534
14 68284 17533
15 72420 19365
16 74509 18784
17 77196 16198
18 73168 9459
19 72237 5682
20 76278 4896
21 81640 6477
22 91623 9422
23 95074 10049
24 91914 16693
25 87978 25851
26 91836 30977
27 91716 39322
28 40256 80565
29 91226 39996
30 91140 40507
31 38940 47931
32 31665 50672
33 32614 48886
34 32627 48881
35 48521 45052
36 58679 57607
37 44318 45745
38 59121 38492
39 48255 48481
40 59638 39939
41 79131 41710
42 62039 81556
43 55311 48211
44 41827 55554
45 41612 65493
46 35462 72040
47 31163 64670
48 33002 67192
49 27958 57940
50 24392 54285
51 29377 49199
52 28009 47130
53 17659 44409
54 17670 46815
55 17274 44294
56 8987 40840
57 11011 51063
58 7347 60878
59 6733 62847
60 5326 69504
61 17096 67177
62 20911 29281
63 22179 66734
64 22698 71931
65 14935 78255
66 10486 80425
67 3122 83162
68 4119 92789
69 19768 94333
70 24674 94245
71 24155 87973
72 29152 82744
73 31092 81753
74 30356 81369
75 37869 72004
76 37738 78867
77 83605 40456
78 28581 90445
79 41440 90745
80 43483 92841
81 46797 94064
82 52212 86552
83 52872 87238
84 69846 93066
85 69290 93585
86 72159 94255
87 75809 93702
88 85138 92944
89 84532 94487
90 88837 87117
91 89331 85625
92 93025 71594
93 92949 72251
94 94761 71071
95 91279 58474
96 91737 56054
97 87141 50737
98 84994 43021
99 74638 93024
100 47811 50857
101 44838 52963
102 41710 55244
103 41386 52351
104 45396 58910
105 49403 52121
106 57047 41371
107 51690 49355
108 51177 49056
109 18593 28543
110 51875 49409
111 57519 51052
112 60270 41927
113 55663 48002
114 57489 51043
115 57939 51786
116 71078 55462
117 48951 44666
118 65658 63682
119 66101 63640
120 65901 63034
121 55738 60743
122 55567 61673
123 53832 70095
124 61767 75625
125 60103 74644
126 62698 74783
127 62499 76143
128 70125 74429
129 71557 74687
130 71633 69715
131 78298 68271
132 76892 65959
133 73447 60127
134 74959 47190
135 70140 46264
136 65268 43479
137 71106 43341
138 74323 39365
139 63978 29253
140 67539 33909
141 60425 40602
142 59256 38211
143 56628 26527
144 55715 17681
145 54644 28659
146 55613 21270
147 51304 24389
148 51688 27450
149 53823 33579
150 45817 30349
151 39907 33439
152 35377 40539
153 33106 33411
154 34685 38367
155 31985 29891
156 25987 31431
157 22507 32685
158 21414 27980
159 21647 58732
160 20930 32311
161 50486 45695
162 22646 26566
163 17604 24437
164 3489 18242
EOF
