NAME : lhk
TYPE : TSP
DIMENSION : 32
EDGE_WEIGHT_TYPE : EUC_2D
NODE_COORD_SECTION
1 169300 405500
2 220133 232048
3 261127 312608
4 233863 257260
5 240136 255980
6 223164 298421
7 221846 327249
8 97282 108027
9 74452 70488
10 78608 65753
11 73251 68853
12 87306 58051
13 119711 87963
14 241070 70767
15 241121 67425
16 211862 85936
17 237763 120919
18 119711 87963
19 180326 87170
20 237763 120919
21 229829 221542
22 236532 218127
23 73607 68285
24 64555 76644
25 88703 90918
26 87242 174938
27 93996 286058
28 89162 273574
29 69516 144632
30 93996 286058
31 81147 320031
32 72899 322114
EOF
