NAME : lhk
TYPE : TSP
DIMENSION : 993
EDGE_WEIGHT_TYPE : EUC_2D
NODE_COORD_SECTION
1 80000 20000
2 11794 98045
3 37616 78816
4 -995 62829
5 -3608 36828
6 42128 95686
7 67439 35637
8 35901 45371
9 27746 9412
10 56767 74940
11 10451 38997
12 17472 40713
13 46552 86028
14 18083 96180
15 5747 66077
16 18976 100671
17 15930 77094
18 21033 95189
19 70366 78554
20 54593 35343
21 21373 99145
22 36499 68963
23 34367 98662
24 60198 97354
25 65823 28067
26 92291 78720
27 38425 21055
28 51131 33683
29 19650 97680
30 74734 43173
31 44172 57571
32 11001 71598
33 9553 41730
34 87366 33049
35 28191 67876
36 51193 60352
37 18260 92684
38 22978 43609
39 32427 46498
40 -6592 93152
41 60888 91118
42 30806 84487
43 61115 94222
44 57408 45765
45 18581 95519
46 62102 31881
47 8679 41453
48 15097 55600
49 11916 82112
50 41438 57065
51 27231 81664
52 73076 79002
53 62555 100193
54 38401 88339
55 39732 60363
56 53953 23121
57 36825 57043
58 7130 50561
59 25003 92026
60 22656 56710
61 30875 80591
62 8138 23087
63 56113 90668
64 44752 34120
65 28841 26686
66 18577 40367
67 51484 41835
68 65780 62705
69 63966 65964
70 43456 55031
71 62727 59911
72 76579 70116
73 31672 87259
74 21357 98958
75 1036 24905
76 5948 86623
77 30697 86507
78 -5705 65506
79 8610 41237
80 24271 63538
81 41512 71593
82 9712 62584
83 52002 81912
84 72649 80864
85 51006 64763
86 47209 58942
87 2789 35911
88 10231 34707
89 15711 83791
90 34234 52996
91 4985 80743
92 50412 73646
93 34074 84992
94 10925 88902
95 53286 70482
96 11043 86919
97 39265 94507
98 6512 66432
99 92872 32649
100 24653 66865
101 6058 52672
102 54122 59624
103 68597 54976
104 54685 1822
105 34598 68090
106 43798 96735
107 11751 98224
108 91707 45872
109 8954 81914
110 53881 72930
111 72488 65543
112 40928 16582
113 50595 72367
114 12807 65303
115 16412 62357
116 12843 90284
117 7302 51704
118 65688 48870
119 60082 84496
120 10142 72092
121 26874 90329
122 19026 28562
123 -787 65927
124 11902 32116
125 30046 73548
126 14454 43262
127 56434 72758
128 45726 44599
129 -2179 45028
130 38903 88483
131 13451 63039
132 9920 66067
133 27640 63098
134 12865 39358
135 36961 62895
136 78099 96962
137 76520 52475
138 39519 59881
139 12027 104349
140 38425 100290
141 50944 82802
142 35178 81950
143 20074 50286
144 72013 43966
145 44084 68022
146 60379 93340
147 36352 92707
148 27605 54439
149 15038 41385
150 71361 94066
151 31645 91462
152 39188 34983
153 77965 60540
154 2043 77678
155 9658 48109
156 43556 38569
157 51671 88186
158 -1081 51937
159 66388 85257
160 87612 90047
161 40477 30696
162 62175 61221
163 9704 79060
164 37199 59786
165 49273 26496
166 44752 106134
167 14819 54100
168 29979 84061
169 20414 87198
170 4572 81307
171 89148 49400
172 36505 67567
173 29862 82973
174 63367 67743
175 12162 58062
176 41327 61123
177 64865 9903
178 64147 91311
179 8024 86531
180 62815 80283
181 40307 50021
182 42634 93816
183 22372 55893
184 19839 85989
185 26141 74399
186 62828 86252
187 46045 61036
188 -1859 21876
189 58572 58841
190 34315 76256
191 67421 57473
192 43848 31518
193 15200 63326
194 43087 79680
195 39821 44847
196 78389 48133
197 11832 59443
198 43954 37136
199 91598 52518
200 7210 91636
201 19358 97316
202 77228 65760
203 52760 97033
204 6000 77412
205 93300 74406
206 16472 30571
207 42860 90441
208 -7087 75004
209 61742 68670
210 48159 28877
211 36184 57409
212 14348 15448
213 5702 46913
214 -590 99320
215 1270 54062
216 36776 82671
217 57891 70299
218 64271 42265
219 -2556 47538
220 17941 59940
221 22553 74804
222 27016 32822
223 6552 40672
224 26947 72550
225 486 73184
226 35763 73540
227 34483 64436
228 17876 97269
229 14377 44111
230 53512 84238
231 33347 92119
232 25295 82757
233 68809 32698
234 13298 52778
235 -2364 54597
236 48229 66784
237 15812 103875
238 31116 48753
239 58697 73676
240 34534 92838
241 436 81190
242 46812 86483
243 87526 62814
244 88078 18477
245 23847 73905
246 63232 86611
247 30525 17993
248 9279 100773
249 49188 69030
250 30077 86314
251 45896 32256
252 72331 107095
253 27795 77781
254 26276 85688
255 21848 28917
256 11871 64671
257 35745 83342
258 40517 39978
259 6438 30921
260 55450 84137
261 80440 4539
262 47587 21217
263 43402 47459
264 9344 95781
265 36068 62321
266 42850 101944
267 25918 75142
268 31379 53985
269 20343 28814
270 30190 52924
271 28531 74953
272 31669 97462
273 11305 70723
274 56082 86863
275 76096 35560
276 18966 73242
277 49447 42565
278 -4225 67714
279 27454 36628
280 27275 52146
281 51349 69346
282 44203 54827
283 57479 69157
284 21476 36906
285 26347 23280
286 78499 91651
287 53678 50176
288 47961 11280
289 16693 88702
290 47224 25052
291 76468 63870
292 44655 61701
293 31527 80964
294 65205 53551
295 39963 73751
296 63500 23245
297 28407 82496
298 56667 75479
299 -867 72800
300 -4969 25752
301 3238 92802
302 266 93742
303 35065 50814
304 11171 64251
305 1452 93774
306 37923 92948
307 25037 97275
308 31127 19492
309 31113 67672
310 42606 90761
311 42122 20649
312 87039 71461
313 3385 51091
314 54227 95245
315 73190 46677
316 63182 85103
317 10822 87677
318 59089 84101
319 68472 91643
320 42676 85183
321 48766 83953
322 6572 79853
323 91000 88462
324 69220 43856
325 24052 53364
326 12498 83995
327 6978 78368
328 18113 77812
329 4139 37154
330 19888 61996
331 -1301 44777
332 3716 29275
333 81802 65420
334 30930 85045
335 77535 59465
336 56350 81886
337 17221 52632
338 39057 11105
339 16172 61790
340 22611 81238
341 60750 68983
342 18861 47222
343 44921 41377
344 45833 91189
345 53730 96629
346 90439 12106
347 9562 73028
348 5937 55262
349 7725 21613
350 20202 61829
351 33016 70724
352 30333 7771
353 7393 47137
354 68344 93418
355 23865 28071
356 59434 27281
357 43970 41058
358 56675 35305
359 62769 40884
360 27358 70745
361 20869 90712
362 7985 78743
363 1895 15542
364 29651 10158
365 13698 84789
366 36563 68848
367 12142 17772
368 63250 93438
369 20264 96917
370 58742 85823
371 50376 50310
372 2917 66311
373 101219 84138
374 13341 42864
375 15572 69240
376 39451 93599
377 8865 65750
378 61509 37407
379 65566 85735
380 36068 27401
381 132 106305
382 2861 60597
383 31091 50671
384 77630 66165
385 7892 45655
386 85728 69458
387 1771 90086
388 86081 51159
389 19048 39945
390 42059 94416
391 36143 65437
392 20683 40680
393 29224 89291
394 69073 63629
395 47744 84049
396 63761 84577
397 59643 44879
398 26395 40897
399 11635 71412
400 15479 84934
401 6445 73381
402 -900 84342
403 14637 23280
404 28550 40019
405 42424 79713
406 7938 96349
407 54761 89422
408 35380 12349
409 52796 97845
410 24527 96079
411 45000 69923
412 9037 65116
413 6639 13876
414 21652 45435
415 27559 36931
416 52492 85536
417 46161 80441
418 68687 88998
419 16489 81822
420 51626 24792
421 70944 69191
422 46383 25355
423 17324 52109
424 10117 32707
425 20624 84351
426 76568 49582
427 -1569 80487
428 12908 72569
429 28243 80899
430 16090 67146
431 15501 97399
432 16454 72612
433 59514 75996
434 1337 77253
435 52526 99413
436 -1646 96727
437 8387 73137
438 49143 93043
439 24911 40014
440 19222 16271
441 59397 65757
442 30347 100835
443 23928 92041
444 17045 84115
445 4521 85907
446 -3933 70292
447 8258 80984
448 3173 88784
449 37202 95615
450 42325 94377
451 91881 73029
452 24805 57100
453 37343 36803
454 53727 68619
455 29971 77118
456 672 21939
457 26071 95315
458 11898 76299
459 51731 41476
460 32925 60483
461 56144 73618
462 38154 61246
463 11610 89078
464 8674 47731
465 64560 90137
466 74665 89973
467 79506 36705
468 35118 27489
469 57712 65405
470 19174 85126
471 31281 87389
472 42222 53779
473 47306 47587
474 97894 88024
475 20070 23146
476 24118 44181
477 28702 47058
478 66018 99023
479 69212 55079
480 27155 78795
481 39740 36407
482 77097 81590
483 16633 66083
484 85485 11065
485 55053 70255
486 64046 53492
487 25012 26592
488 16888 76063
489 25185 10864
490 6792 49800
491 19365 75082
492 24329 105027
493 52138 54371
494 33993 70068
495 73996 91999
496 13767 87395
497 21707 48406
498 101642 60013
499 49985 55208
500 -496 50281
501 13253 77220
502 33363 58521
503 21775 61185
504 9319 67626
505 69492 21589
506 6397 46233
507 88391 61030
508 20727 55075
509 21200 43567
510 60112 78864
511 26995 53025
512 51500 101866
513 35777 45860
514 46193 76822
515 1543 33927
516 57450 74898
517 40526 98871
518 1402 62739
519 39485 3051
520 56408 51935
521 90735 30991
522 29513 98844
523 46457 59486
524 42497 69292
525 14425 71948
526 28855 44874
527 20705 63716
528 -1726 53851
529 79144 76115
530 35297 31650
531 41870 86179
532 3518 58480
533 53763 97346
534 48552 66104
535 23492 50254
536 31650 49967
537 49231 90606
538 30370 66530
539 71400 58952
540 42276 89070
541 49640 75166
542 54599 103499
543 5375 42072
544 25164 44163
545 60359 96193
546 26684 66248
547 7527 82772
548 250 77411
549 37460 91119
550 26290 38569
551 23913 78414
552 14916 77496
553 28668 61752
554 71299 50288
555 -2196 77318
556 55351 24556
557 -3993 73284
558 12129 101114
559 46173 58463
560 37249 96980
561 19308 78341
562 36570 92482
563 39023 79378
564 57533 75636
565 44053 81131
566 19272 56085
567 48457 51265
568 62314 88499
569 -1045 91859
570 42635 85954
571 1027 85753
572 27960 72694
573 12096 26163
574 38426 17965
575 20310 71391
576 58826 84721
577 49562 65986
578 49972 57009
579 31089 73234
580 74476 61861
581 78762 94903
582 63986 19849
583 58028 69258
584 81927 55172
585 57747 97219
586 2305 104648
587 45695 38989
588 19777 64724
589 14819 27052
590 7432 67186
591 90774 31520
592 30910 76441
593 75563 42054
594 25582 100098
595 58396 35636
596 69184 53305
597 35582 73771
598 40681 52356
599 65505 15527
600 28723 57656
601 20471 73891
602 25294 71726
603 19562 21376
604 36019 49311
605 38962 80759
606 49706 73008
607 64987 42709
608 2295 70858
609 22394 81256
610 76811 41680
611 25961 94568
612 25491 96439
613 19637 27210
614 24132 95748
615 42029 77468
616 7441 70717
617 11159 43661
618 54025 74264
619 58136 89656
620 31350 35019
621 61934 102187
622 34624 54141
623 70543 87954
624 55845 49965
625 55671 98468
626 56047 60368
627 34340 23255
628 94449 23350
629 8712 83659
630 5945 11996
631 10389 70727
632 34823 103021
633 56647 79766
634 25569 50713
635 57936 28915
636 17123 77743
637 48298 84216
638 343 96982
639 27108 84468
640 4090 83892
641 38589 56793
642 18693 25377
643 49532 70978
644 17286 25210
645 60581 41472
646 40010 58664
647 1920 16915
648 64144 63949
649 74200 75364
650 42568 80606
651 69881 67182
652 21535 95401
653 19559 45765
654 43699 16481
655 67564 72896
656 34302 38621
657 73317 67777
658 -2251 74123
659 23798 81021
660 46560 83028
661 91224 76375
662 23190 16896
663 34961 77546
664 10662 37494
665 29280 39623
666 3182 73947
667 81881 91548
668 1920 62299
669 60883 60422
670 35755 8394
671 73756 47248
672 68091 83566
673 32905 82269
674 1865 24993
675 8612 17617
676 62057 41370
677 42932 71488
678 7278 52818
679 -628 103514
680 33704 37325
681 14106 69106
682 50554 33595
683 7390 9106
684 49882 60731
685 77383 59968
686 91718 87524
687 834 68289
688 30142 38400
689 29799 53302
690 32797 75260
691 59015 90571
692 18643 57438
693 39009 39381
694 9236 85497
695 -3413 76232
696 20294 84689
697 28380 90541
698 25934 78060
699 19443 50870
700 17271 85014
701 12721 34672
702 19832 70135
703 25551 18585
704 9641 60473
705 38549 26374
706 29963 58755
707 41217 40732
708 38734 95956
709 3168 54067
710 32138 16445
711 -1700 26765
712 9021 86813
713 19147 95054
714 50377 85288
715 12498 98842
716 39518 71703
717 46105 45838
718 11440 59336
719 10416 77755
720 3335 86834
721 29357 70840
722 66514 18956
723 7218 19339
724 25574 45084
725 33932 67981
726 76877 87681
727 10917 77684
728 68909 71745
729 4861 75843
730 16119 62281
731 19258 73019
732 14313 34122
733 40149 58822
734 19002 56119
735 12679 71852
736 25467 59786
737 6308 90890
738 54490 90884
739 33908 99888
740 8433 71066
741 81848 80791
742 1985 24657
743 79236 81139
744 47641 64421
745 74388 74171
746 71022 48160
747 52538 90408
748 11524 60127
749 30195 44639
750 -1906 47850
751 7439 96214
752 51997 23669
753 38938 95366
754 29055 99267
755 54654 87714
756 44650 78171
757 25473 66852
758 25931 82403
759 14565 53073
760 9253 89513
761 6405 61644
762 25225 93364
763 64932 62591
764 44359 92941
765 5976 63228
766 37899 60540
767 36938 105662
768 66580 56122
769 17928 99920
770 64936 72531
771 19729 43720
772 18547 50855
773 18552 51666
774 28698 84285
775 50655 89941
776 70301 72773
777 11921 98719
778 62245 26278
779 26253 55502
780 45474 63554
781 12392 79809
782 63607 28481
783 48780 69166
784 35878 38827
785 8299 61972
786 43032 27636
787 31982 91165
788 26386 31080
789 29894 64670
790 27467 74639
791 43359 39135
792 56676 70516
793 3941 78762
794 63644 59562
795 -3833 34271
796 38397 88681
797 10072 81497
798 16419 36913
799 56086 62772
800 2761 67015
801 54926 77192
802 64083 83647
803 56926 78814
804 717 89376
805 41878 62202
806 8248 54544
807 26603 75940
808 47979 75727
809 31715 85288
810 42574 50108
811 64248 62519
812 31678 35747
813 3683 -36
814 71932 91607
815 45182 96603
816 2870 89005
817 54480 83704
818 69839 86398
819 68091 74833
820 59350 14594
821 71206 96236
822 52513 37423
823 31720 32276
824 61749 85384
825 29867 28621
826 25396 77358
827 46057 85530
828 -3753 102131
829 58094 33978
830 18045 36679
831 1796 78871
832 58688 28789
833 60715 74268
834 14841 84534
835 30177 38855
836 92971 32470
837 19870 24568
838 68924 73105
839 81605 49024
840 42759 56784
841 32575 84450
842 20904 45343
843 65940 44831
844 47228 44997
845 49756 40035
846 67949 88297
847 23334 69162
848 52477 71436
849 48286 42923
850 5030 52004
851 74087 52012
852 50614 91108
853 63692 66916
854 32366 39634
855 79919 102877
856 55118 77519
857 58145 105550
858 51237 72672
859 16124 49111
860 24573 88203
861 6647 74247
862 45416 87770
863 50434 45649
864 -1343 37145
865 73330 82953
866 44656 33522
867 43758 95216
868 65109 60610
869 487 83306
870 21878 40101
871 57079 43950
872 14990 98723
873 31190 85726
874 46066 26867
875 39618 91925
876 62120 46977
877 34655 40454
878 45414 93994
879 33202 67736
880 2825 74388
881 53072 83141
882 10236 7207
883 59714 95211
884 35722 18473
885 93033 48996
886 24375 89042
887 26291 87213
888 58851 87199
889 20146 70082
890 99656 87997
891 3102 78624
892 33239 53834
893 4596 87043
894 77974 86030
895 40672 60311
896 45981 89234
897 51150 106300
898 13553 66958
899 1362 29150
900 16960 26453
901 73956 69310
902 21522 51188
903 27328 20739
904 26886 56181
905 69648 70992
906 6529 83932
907 49896 43499
908 60872 56587
909 31052 54811
910 8692 48428
911 47192 63512
912 57109 97416
913 40650 58210
914 28680 48710
915 3247 93937
916 30122 31506
917 17732 84528
918 40375 40860
919 35110 83765
920 27414 77614
921 80884 57268
922 40951 76696
923 31351 47632
924 44882 51568
925 20817 70506
926 5734 66163
927 58882 45284
928 21966 67848
929 85852 95505
930 34399 57503
931 53575 39674
932 63463 93749
933 82375 51639
934 16689 98264
935 46203 14601
936 43250 32191
937 11903 48134
938 66581 92685
939 32186 54837
940 -4827 72501
941 55518 78660
942 71923 57751
943 64585 60841
944 7227 27909
945 -5532 80289
946 42962 56765
947 27181 77438
948 43574 85583
949 4305 73089
950 18522 46453
951 20470 75447
952 92746 53278
953 50338 93238
954 9219 92276
955 28704 87020
956 15994 77644
957 17932 60756
958 28249 60978
959 7529 37564
960 62819 12401
961 31790 94062
962 52314 99276
963 80520 71864
964 5690 28948
965 48528 58388
966 34982 70542
967 1833 66583
968 65990 53296
969 51443 70535
970 -4114 90909
971 9850 64505
972 32503 69400
973 17987 52199
974 7686 92768
975 47841 103042
976 74375 68729
977 37473 81383
978 88614 65574
979 51255 51703
980 79890 12435
981 63739 95748
982 22321 58695
983 16700 88171
984 71695 95843
985 61705 86912
986 13152 33679
987 42483 78397
988 51722 66939
989 -615 94961
990 41631 44333
991 10011 35283
992 1572 84151
993 70941 100898
EOF
