NAME : lhk
TYPE : TSP
DIMENSION : 132
EDGE_WEIGHT_TYPE : EUC_2D
NODE_COORD_SECTION
1 80000 20000
2 83454 17854
3 86215 17673
4 86237 17562
5 82194 31212
6 79805 55470
7 76257 48687
8 86590 65402
9 80003 59736
10 67232 52455
11 53493 33916
12 54064 32378
13 52419 34507
14 48547 35817
15 51711 45317
16 38304 40616
17 37910 47338
18 41153 69365
19 34595 48287
20 31558 41899
21 59190 56780
22 59618 55053
23 61750 56374
24 56239 58348
25 58720 57606
26 40048 72303
27 58887 56942
28 57983 58438
29 61737 67695
30 48198 89599
31 54940 80149
32 56570 76455
33 56356 79083
34 48530 79548
35 44558 76548
36 42855 65460
37 77080 63714
38 78730 73577
39 74325 87840
40 72096 89449
41 78811 88690
42 82247 87760
43 85996 82466
44 57801 82038
45 57970 88845
46 56943 90847
47 54299 89364
48 43571 76267
49 57893 87960
50 50205 80814
51 49742 89577
52 39792 89718
53 44371 93152
54 37020 89758
55 25927 89760
56 34124 89715
57 40481 85946
58 43115 76636
59 36390 73714
60 16318 75774
61 17165 78319
62 19528 75761
63 12238 67321
64 14352 77655
65 15219 75876
66 12239 67322
67 10961 78693
68 10817 78619
69 11956 86756
70 11136 86841
71 11075 90771
72 11706 79076
73 11841 90343
74 10743 90370
75 14286 90283
76 25843 89760
77 36825 89700
78 18104 90189
79 17573 91085
80 7445 83188
81 9816 44254
82 9515 47851
83 20834 61123
84 12360 67280
85 12266 67224
86 13896 66883
87 12316 67289
88 11193 65360
89 20963 61271
90 22904 71896
91 21257 61608
92 21824 61679
93 25101 56168
94 38331 71843
95 36621 69122
96 40282 46931
97 38214 52037
98 37436 54235
99 42795 54942
100 39629 53666
101 38406 53202
102 22319 62821
103 29584 44016
104 28214 45018
105 29400 41304
106 28567 44157
107 39231 40440
108 33408 21130
109 26586 21860
110 47596 36289
111 37799 24625
112 38591 25731
113 41123 22914
114 32864 21557
115 36053 15989
116 27424 22235
117 39216 18989
118 12452 15494
119 11823 25657
120 10633 24381
121 12593 15600
122 10365 16328
123 11573 33273
124 11812 26009
125 11584 32942
126 11205 44447
127 10941 45115
128 11551 51779
129 12234 67314
130 29400 41304
131 58569 15065
132 62891 16804
EOF
