NAME : lhk
TYPE : TSP
DIMENSION : 993
EDGE_WEIGHT_TYPE : EUC_2D
NODE_COORD_SECTION
1 80000 20000
2 11925 90700
3 32528 83048
4 11995 68829
5 6736 27966
6 48504 94455
7 59159 27712
8 31297 40866
9 19819 9094
10 56076 71149
11 11238 37983
12 32373 38520
13 57633 91640
14 21121 97199
15 9060 64320
16 19454 109315
17 23819 79210
18 16360 93346
19 59170 87287
20 58381 36333
21 31054 103675
22 34558 68835
23 48209 89869
24 56922 101971
25 75268 22525
26 91119 84453
27 46984 13315
28 56472 33346
29 21217 92482
30 72662 43344
31 38133 57743
32 9829 80090
33 27813 42729
34 86199 34417
35 19829 58795
36 53923 56930
37 28288 95547
38 23602 46532
39 31638 35227
40 5415 92916
41 51001 91739
42 25448 82178
43 65887 91975
44 67179 35065
45 15453 96808
46 63877 36514
47 3617 39811
48 -1734 46818
49 6305 77509
50 43643 55233
51 20760 88677
52 62979 78936
53 67923 95237
54 39522 96009
55 41727 59212
56 51496 27162
57 41076 56495
58 9857 39872
59 31130 86891
60 25327 57252
61 32439 74618
62 6910 23583
63 53193 89328
64 46489 44841
65 28348 24102
66 22421 37294
67 52394 46317
68 65660 66602
69 60563 65570
70 44576 36309
71 63524 49635
72 78362 82046
73 40075 92987
74 29004 90575
75 10099 24684
76 6068 87806
77 26308 91073
78 -826 66313
79 22213 51797
80 22993 50519
81 42159 69483
82 14826 66208
83 47170 80873
84 62756 74039
85 56741 70445
86 51836 57483
87 3099 20503
88 4466 43911
89 15510 84067
90 30571 52395
91 1453 78473
92 45427 68421
93 34886 89188
94 14658 85738
95 58322 76008
96 9836 85322
97 32125 101204
98 13418 70022
99 98846 33763
100 22500 72848
101 9173 50599
102 41622 47285
103 65466 52463
104 73237 4633
105 37336 62316
106 51792 90475
107 11684 88700
108 98002 53010
109 13724 91731
110 54411 71019
111 68314 58950
112 35870 22933
113 46359 73351
114 15787 75589
115 2978 61926
116 19557 84226
117 -9707 43841
118 65376 50156
119 62772 91921
120 11657 67614
121 30230 92290
122 25505 32890
123 -9664 59700
124 7324 42754
125 26258 87278
126 20009 41864
127 43703 81860
128 38631 50884
129 3349 47782
130 32751 80724
131 6249 61941
132 18552 54086
133 26118 65063
134 7733 26591
135 42979 74796
136 81359 99870
137 85086 52045
138 37493 65982
139 4190 90402
140 36581 99897
141 60917 90242
142 33183 86462
143 16608 47764
144 60333 57000
145 35920 73134
146 72270 85877
147 31997 97864
148 39260 48147
149 15425 48035
150 67682 88372
151 28837 98064
152 30341 42168
153 83815 67060
154 10358 81548
155 12845 57289
156 41742 48227
157 51541 96541
158 4906 44680
159 63954 93586
160 77778 85712
161 38536 36381
162 59931 69797
163 6753 66507
164 33898 73289
165 46538 19697
166 44245 89629
167 11562 49166
168 25267 85235
169 26714 80184
170 10415 86588
171 91315 53050
172 39772 74492
173 40508 90781
174 65937 62457
175 16732 50552
176 28707 66653
177 69035 12990
178 65124 94236
179 4665 85001
180 59604 85835
181 39704 49378
182 42428 97588
183 18519 47450
184 21893 88350
185 17456 78760
186 70432 94529
187 54417 56225
188 -1064 16013
189 58023 56499
190 36537 80049
191 64293 51566
192 30700 28945
193 7501 68411
194 47954 86548
195 39791 36234
196 82299 38869
197 14866 58073
198 46268 42498
199 72837 52503
200 6340 90674
201 -2118 93723
202 70979 62869
203 62399 88106
204 2638 84552
205 83782 78276
206 26480 35688
207 51997 91771
208 -8586 76872
209 46512 72380
210 45903 19786
211 41770 51793
212 4218 17178
213 7081 42256
214 2105 108564
215 1684 52538
216 44614 80214
217 45830 63305
218 62075 45162
219 12883 53331
220 9935 70528
221 11961 75427
222 30234 39024
223 15260 52982
224 41203 77473
225 12291 76759
226 31543 75692
227 31707 69063
228 11217 92138
229 7217 37017
230 63470 71800
231 46916 89363
232 35373 90806
233 75399 51132
234 28606 52910
235 10064 62762
236 45521 68147
237 9890 94519
238 41810 51936
239 67596 70423
240 45388 88567
241 4208 72888
242 38238 81678
243 82726 58624
244 93384 6960
245 19782 79572
246 60381 87833
247 29289 20503
248 14287 87113
249 57192 81631
250 23264 84955
251 38036 36983
252 69726 96289
253 34909 76048
254 30226 86637
255 17610 10873
256 1730 69171
257 30195 86594
258 37690 39748
259 5792 21350
260 46250 90574
261 85625 6621
262 44076 20109
263 56173 45594
264 4686 95055
265 47449 66698
266 34330 92611
267 30274 79356
268 30114 59400
269 9655 25123
270 29001 46388
271 40240 71082
272 38651 84078
273 6379 64753
274 68234 90683
275 71900 39801
276 24616 72273
277 50760 49033
278 1622 74313
279 31408 31658
280 17130 53417
281 45579 82286
282 43065 62399
283 52866 62813
284 1158 33759
285 17304 29428
286 71652 96635
287 59119 51943
288 31766 4018
289 20346 86407
290 44874 32013
291 65964 78248
292 30918 63787
293 37240 84783
294 57295 47241
295 46114 91229
296 62841 25363
297 35729 86336
298 56307 91078
299 3107 77962
300 9038 21092
301 900 81903
302 9198 86076
303 24248 39846
304 8085 53267
305 9448 84717
306 52756 97566
307 34072 105546
308 37284 27541
309 36983 70154
310 35973 91527
311 39843 19060
312 84440 74460
313 6703 41738
314 58792 86502
315 58499 45823
316 55454 78810
317 13004 87287
318 60299 85474
319 69482 96295
320 47973 72077
321 47763 85665
322 8909 77005
323 94810 93092
324 75098 41574
325 30897 54462
326 12245 82684
327 20044 74550
328 32315 64782
329 -2539 41715
330 19031 72390
331 2114 35891
332 7297 23549
333 81237 76508
334 21930 76347
335 67246 63421
336 46029 86762
337 26910 52903
338 39831 21092
339 15350 73641
340 9971 77301
341 66878 64348
342 9731 46103
343 46083 48293
344 53113 84428
345 51739 97883
346 87687 18923
347 10871 80386
348 6562 69386
349 22285 15952
350 26864 67069
351 41413 74460
352 33028 10367
353 9328 52382
354 68147 94302
355 24258 27599
356 46967 41559
357 41470 47839
358 56014 46941
359 62504 43276
360 34055 65276
361 19314 82434
362 15765 71370
363 -1211 23089
364 38774 23876
365 -5427 90679
366 26852 63387
367 16768 24408
368 61363 96222
369 17678 91730
370 48112 78313
371 41345 55093
372 362 66179
373 99187 79912
374 7079 46445
375 11038 67297
376 48665 98614
377 12854 69708
378 63585 35130
379 69413 79687
380 26752 20332
381 -3360 99682
382 9132 70228
383 26107 59629
384 82769 60892
385 3592 39136
386 78777 69692
387 9683 91420
388 76652 48066
389 16508 43027
390 46205 94406
391 26780 66602
392 13889 43465
393 43431 85327
394 66274 63852
395 34027 81908
396 72969 80226
397 67882 51714
398 26473 47779
399 19816 71297
400 20279 79859
401 11102 82472
402 10002 83099
403 14276 23201
404 21874 48861
405 31408 78990
406 14639 96091
407 51229 94817
408 45406 12195
409 38667 86094
410 31579 90991
411 47168 71884
412 26031 74050
413 -1491 13719
414 35541 47700
415 29794 40865
416 46555 78097
417 41114 84668
418 68937 74489
419 17954 79118
420 52828 31236
421 73870 63509
422 46801 42276
423 22571 60126
424 11477 49529
425 20566 78441
426 76421 51448
427 -766 77243
428 15473 72451
429 32193 85936
430 22688 70749
431 32845 92746
432 16978 78268
433 51514 73613
434 -2732 74095
435 52684 99538
436 8456 100966
437 8515 81544
438 38706 88639
439 26654 42708
440 33886 17546
441 62524 61332
442 22539 97827
443 6829 100156
444 21118 76463
445 4848 76364
446 3001 69636
447 12217 93429
448 8922 89644
449 42495 88906
450 39052 94153
451 89367 82627
452 19316 55987
453 45159 40247
454 50496 67414
455 24992 77042
456 6440 24506
457 29597 92244
458 10198 86354
459 52590 35537
460 36564 56728
461 56886 65546
462 39773 44098
463 10759 97611
464 2291 54782
465 66582 94755
466 72530 83379
467 62899 35515
468 30942 26150
469 58870 69332
470 19024 82638
471 33054 87158
472 36115 51238
473 52986 39778
474 87704 89476
475 18736 13074
476 24225 45047
477 17502 43849
478 67039 77932
479 67054 60276
480 14336 64172
481 35527 37347
482 59442 84441
483 12389 62210
484 94105 10048
485 41970 65620
486 70856 55223
487 23619 36894
488 17048 84153
489 14327 1597
490 -2718 50676
491 24273 86647
492 20368 89200
493 50043 43343
494 31987 69558
495 74076 90495
496 15287 86551
497 25249 45426
498 100649 58463
499 46847 57411
500 10064 40501
501 24537 74870
502 28790 70235
503 19261 73420
504 13674 72428
505 69059 9072
506 2502 42988
507 91515 60094
508 27148 63405
509 35663 55488
510 69608 65888
511 35491 60186
512 49515 97459
513 40306 52459
514 45845 74321
515 2309 34452
516 52814 63393
517 50521 88141
518 2109 66498
519 36089 -1882
520 45578 57146
521 95953 42620
522 31710 101289
523 45139 51433
524 35531 60358
525 16070 65450
526 17121 46895
527 22603 74056
528 13778 52815
529 83191 74774
530 24295 38269
531 44303 85256
532 4209 57599
533 44957 102037
534 49233 61554
535 9154 51567
536 26624 41587
537 48254 79431
538 30692 79377
539 66443 56007
540 43781 86928
541 37717 70987
542 47456 105013
543 6245 58059
544 16748 45054
545 62560 91896
546 26245 57517
547 4343 74789
548 6182 79711
549 29603 100125
550 34765 32143
551 25671 76291
552 16750 77098
553 24305 65964
554 73477 45974
555 -3994 80233
556 51543 23863
557 1216 69736
558 10899 91634
559 51326 60407
560 45429 106796
561 10898 83380
562 44168 79994
563 43635 84122
564 40559 86531
565 44695 78450
566 21726 56510
567 35505 34015
568 51648 87132
569 1971 88284
570 31325 89769
571 -208 86085
572 36257 69615
573 6953 29128
574 29021 10442
575 24455 67271
576 57881 77704
577 41230 60354
578 47728 51381
579 30025 73696
580 80300 72749
581 82576 100862
582 66460 15789
583 49174 69527
584 64828 47328
585 63055 94626
586 -7500 100005
587 44238 40080
588 31697 66507
589 18676 20589
590 12367 57358
591 98579 33774
592 34141 62834
593 78338 39272
594 27225 101535
595 57210 47630
596 70788 68454
597 37746 69361
598 45537 59257
599 69387 21920
600 35512 56375
601 14122 75034
602 21422 65796
603 27702 30967
604 40616 48523
605 37199 75718
606 63081 62016
607 56005 45878
608 73 75491
609 22622 83844
610 70989 32017
611 32170 98190
612 27872 99143
613 14705 34201
614 41518 96126
615 36703 79969
616 -1705 84203
617 11135 44869
618 51372 66118
619 55681 91414
620 23195 49755
621 72910 94934
622 48046 53600
623 73868 91364
624 63682 57774
625 56344 92944
626 50682 60942
627 34394 22872
628 86804 16125
629 5533 84405
630 11107 19893
631 18519 63755
632 17518 93477
633 52758 72084
634 21173 57863
635 68135 39168
636 15035 78453
637 47662 76697
638 2319 96425
639 25180 90535
640 4129 77120
641 30669 49639
642 20560 25405
643 44082 73916
644 31279 26569
645 66171 47151
646 33097 65005
647 -5720 7593
648 70309 63337
649 89473 79764
650 36164 83534
651 64258 64588
652 28944 95939
653 456 43698
654 45889 22514
655 59601 67577
656 13874 48292
657 65954 63514
658 2210 67918
659 23555 72743
660 39023 88767
661 94458 75418
662 8782 17477
663 43940 80844
664 18322 43921
665 30746 28639
666 -1770 67958
667 75581 90564
668 1925 70840
669 60179 70120
670 22204 6106
671 81268 45116
672 49031 74574
673 27242 80697
674 14782 24913
675 8947 15676
676 65900 46598
677 47111 67628
678 12961 66884
679 3687 93249
680 28752 44260
681 12458 69266
682 54439 34530
683 7057 15173
684 42325 61565
685 84567 52280
686 99524 87549
687 -1873 77267
688 37762 50020
689 31720 53481
690 26054 76931
691 55597 88156
692 15591 56453
693 37795 44668
694 7924 86573
695 11557 77643
696 17792 88893
697 32813 83774
698 27780 75115
699 11593 53901
700 9728 84130
701 11500 47952
702 24470 76157
703 18372 18717
704 9869 61332
705 45907 11108
706 23366 62259
707 31291 44726
708 36200 88434
709 7131 61483
710 28813 19230
711 12551 24507
712 8446 96245
713 12672 90863
714 45712 95701
715 13981 92418
716 39923 67415
717 51971 45676
718 7095 71126
719 11168 82730
720 15470 87960
721 22228 64564
722 72137 16914
723 2974 13003
724 21504 44553
725 30441 75495
726 80492 92859
727 10994 76257
728 68798 69140
729 9175 70699
730 21059 60742
731 23117 70544
732 9597 42221
733 48378 50574
734 27621 50688
735 1258 67909
736 25893 51879
737 12302 86940
738 57115 86815
739 35802 96871
740 16876 60343
741 87794 79369
742 4910 22966
743 82913 78364
744 48904 62856
745 68071 74071
746 71444 46842
747 48775 94984
748 6710 63801
749 31467 44891
750 10333 50640
751 21683 103622
752 53573 37262
753 35908 99173
754 19541 98487
755 57942 85030
756 53591 82007
757 29489 57540
758 24034 72300
759 13660 48297
760 2055 87237
761 11419 62463
762 25050 95799
763 55457 70435
764 39185 93250
765 11171 65131
766 39690 71916
767 35949 105024
768 66248 64317
769 22524 93581
770 59860 79175
771 1855 43782
772 28305 47845
773 20116 63323
774 36000 79484
775 53459 94915
776 73393 83391
777 7848 96314
778 60221 10411
779 37082 61432
780 50752 63941
781 12858 80474
782 59240 33417
783 58470 66601
784 39329 42984
785 9395 62298
786 57567 34407
787 34535 99593
788 32644 16341
789 19495 56003
790 24507 71240
791 45729 29103
792 60158 68112
793 5388 92354
794 52611 62985
795 -9074 26024
796 30174 89644
797 15122 72895
798 19469 46744
799 53269 66103
800 7332 68547
801 60349 84736
802 64191 73157
803 58729 77940
804 8127 86560
805 41643 57168
806 10399 46432
807 40605 87094
808 39104 72120
809 35669 98219
810 42413 68266
811 58742 60298
812 28427 37866
813 10813 11835
814 76265 85670
815 47242 78739
816 10204 80568
817 56900 88707
818 66706 90756
819 79554 76483
820 63172 27332
821 80918 90604
822 58287 33174
823 36259 21725
824 72089 93846
825 28452 26736
826 9605 81360
827 44076 69309
828 4167 87521
829 60057 35438
830 20200 29388
831 -2009 76464
832 53988 17105
833 60078 72202
834 16114 89498
835 41109 20993
836 85495 32950
837 12178 30260
838 74769 83706
839 75270 46887
840 34769 49283
841 42254 90818
842 10522 47701
843 63529 46808
844 49483 45209
845 54823 37087
846 71720 80770
847 24017 67508
848 54376 79262
849 39942 50307
850 7879 54431
851 72444 54781
852 55251 89433
853 72980 74897
854 33822 27347
855 71423 84089
856 48989 68524
857 60101 105730
858 52762 67968
859 20149 41047
860 20634 92997
861 9300 74939
862 48855 82104
863 43332 40878
864 1545 33278
865 74419 84647
866 57434 22773
867 44968 94363
868 69332 69054
869 4077 95406
870 27825 35434
871 42286 43575
872 24945 90874
873 33039 78097
874 54990 33076
875 47820 102019
876 54531 45780
877 32944 49233
878 42714 92843
879 35759 76501
880 16570 75875
881 47490 87876
882 14894 16777
883 48132 102205
884 40210 23274
885 96241 45547
886 22905 84133
887 12552 82261
888 53489 82488
889 23041 65011
890 90156 80634
891 -191 78720
892 28249 62198
893 -4014 83008
894 84641 93990
895 41777 66149
896 45702 77017
897 47586 97506
898 23091 58351
899 3471 40225
900 29626 27092
901 63838 76802
902 35467 64290
903 31555 26063
904 30418 56777
905 72314 80723
906 13270 91683
907 51014 43272
908 68479 65815
909 29897 39633
910 12654 48091
911 42367 63588
912 47658 101997
913 39440 53296
914 26863 48742
915 -2762 85427
916 23616 26657
917 21930 87929
918 41427 41593
919 22926 94721
920 28707 75815
921 78323 51433
922 57699 69074
923 35903 54422
924 49293 55975
925 21008 68492
926 4627 59303
927 67149 53590
928 14271 67759
929 81158 97811
930 43078 53283
931 65845 41678
932 66650 79916
933 80232 51353
934 17989 88935
935 44382 24693
936 45592 39512
937 349 53865
938 70037 81274
939 13303 45134
940 -2028 61495
941 58910 81094
942 74335 50663
943 63085 62801
944 19871 37215
945 -3216 89098
946 42361 42389
947 30320 71811
948 46157 82091
949 10186 64720
950 14728 45519
951 22457 83854
952 96179 57082
953 53598 102345
954 4084 89909
955 34387 80987
956 11058 85141
957 16679 57744
958 21589 57163
959 9418 38431
960 64556 18957
961 29031 97374
962 47472 95197
963 69203 71410
964 6010 27926
965 55796 55450
966 30279 69170
967 -1862 69999
968 84689 49545
969 53245 63075
970 12133 83508
971 6470 72802
972 27170 63045
973 10730 47061
974 3869 95158
975 37498 103173
976 73103 57774
977 39535 63472
978 81889 61321
979 52143 39005
980 81915 7062
981 57676 99498
982 21477 49319
983 19933 84432
984 80414 98835
985 56593 101108
986 172 30508
987 48831 72100
988 49116 75725
989 4256 92586
990 40668 43526
991 16119 30749
992 13431 72302
993 56997 100020
EOF
