NAME : lhk
TYPE : TSP
DIMENSION : 993
EDGE_WEIGHT_TYPE : EUC_2D
NODE_COORD_SECTION
1 80000 20000
2 18161 92450
3 41133 85068
4 4674 73342
5 8861 36021
6 54242 105102
7 53665 35805
8 33116 47515
9 9414 8456
10 58381 78223
11 14924 44198
12 24643 40250
13 54501 83256
14 13027 95467
15 2968 67496
16 16997 99329
17 29028 80080
18 18054 99950
19 71639 71343
20 46813 40307
21 35057 102784
22 31249 67873
23 41532 82852
24 52921 108615
25 57483 22250
26 95215 85834
27 42828 17424
28 47222 34567
29 30749 92616
30 68684 51223
31 40580 63845
32 6835 77146
33 19310 45943
34 78555 37949
35 23016 59930
36 58615 59268
37 26058 95354
38 19563 42379
39 32279 41706
40 1309 94631
41 53561 97939
42 25837 82865
43 54431 88388
44 59726 38059
45 29144 83674
46 64439 33160
47 14663 36611
48 831 54082
49 17500 87729
50 35232 49649
51 20138 79481
52 71959 84545
53 67470 93795
54 33503 97201
55 29056 67530
56 50920 25658
57 30492 63480
58 7360 50322
59 22618 91223
60 27523 50721
61 30037 77810
62 -1386 22698
63 59714 95119
64 50802 43462
65 25787 13242
66 17092 29856
67 48547 47835
68 66693 58634
69 64982 55594
70 48461 45519
71 59234 56875
72 70567 78640
73 24514 93449
74 28620 90771
75 15308 23734
76 1653 81809
77 15798 91337
78 4238 54649
79 26950 44006
80 25337 61620
81 35178 69868
82 12541 61293
83 54001 83128
84 80038 84922
85 54253 63921
86 60275 56334
87 -3296 27641
88 8011 34254
89 17278 81642
90 40000 53467
91 5025 72278
92 53120 75355
93 34491 91500
94 9085 91414
95 51774 67192
96 5386 80634
97 31697 93536
98 12191 76170
99 96000 31409
100 24873 73336
101 7226 41238
102 49574 59060
103 70483 53557
104 56947 5525
105 35810 61736
106 42290 97374
107 5818 93807
108 98142 53420
109 6602 86895
110 57800 75914
111 73306 65057
112 39375 23451
113 57764 61096
114 12476 63026
115 8780 62537
116 18751 92412
117 8140 57036
118 65200 41398
119 62515 92712
120 16310 62214
121 33241 88044
122 29005 28003
123 2812 58871
124 11646 50774
125 29896 84648
126 16484 43606
127 48943 78085
128 36370 56525
129 3259 45921
130 30803 86784
131 17813 65227
132 8713 66101
133 20932 65349
134 8631 30180
135 32253 68389
136 83743 105261
137 86023 50990
138 26627 61107
139 3456 101367
140 33576 103726
141 53851 84521
142 29335 91441
143 29517 44621
144 58744 49666
145 46471 74611
146 63420 84407
147 28834 89460
148 36697 46487
149 17859 43419
150 63893 90643
151 37251 92651
152 37567 41861
153 72018 66481
154 9074 87561
155 9522 54522
156 44715 41697
157 48910 105012
158 -822 43365
159 78705 92552
160 75090 84703
161 31646 24037
162 56161 65812
163 8417 75058
164 28420 68912
165 52431 19360
166 45605 93617
167 8548 55151
168 28454 92552
169 13591 67270
170 8417 86006
171 91087 55979
172 45281 72887
173 40892 88589
174 58526 71640
175 15876 44670
176 36515 60687
177 68581 16404
178 54115 92876
179 10672 76876
180 52101 83032
181 36572 47796
182 38482 97209
183 21408 55125
184 19749 91987
185 22095 79650
186 71285 97233
187 58965 55039
188 9197 20636
189 57892 50934
190 36259 82489
191 67078 50919
192 44814 28146
193 4439 63646
194 47366 84934
195 36319 52441
196 77550 41826
197 8392 56516
198 41684 42278
199 80508 53895
200 1954 91730
201 9549 98466
202 74749 67883
203 50976 93741
204 9312 80502
205 88341 64078
206 26890 32956
207 46247 101688
208 1927 63485
209 57817 68521
210 47313 29523
211 45028 55908
212 8698 15840
213 13494 39524
214 -3711 97176
215 8316 49768
216 47258 83248
217 43243 59734
218 61851 41793
219 11158 51618
220 11314 65067
221 9409 78580
222 23374 23056
223 14793 54171
224 30097 78680
225 12891 75308
226 38302 65734
227 40248 85522
228 27614 91110
229 16597 34985
230 52171 79542
231 37146 89846
232 37137 85223
233 69934 45183
234 26291 52106
235 6857 59313
236 46741 66027
237 11474 90832
238 43495 58437
239 62967 64357
240 40502 93874
241 12274 82574
242 44988 85468
243 90342 46293
244 93354 5476
245 9343 86349
246 50540 87544
247 27177 7745
248 12898 85593
249 46684 78268
250 18233 86909
251 52473 20415
252 71503 93655
253 45166 79697
254 35240 85958
255 22263 16856
256 -594 62202
257 27392 89794
258 50582 39424
259 -5305 19579
260 48872 91720
261 92831 2276
262 45276 32915
263 55258 40111
264 4566 81338
265 46946 59358
266 39293 98197
267 24521 74330
268 40362 54779
269 21656 27344
270 28400 52099
271 36521 66192
272 27137 91168
273 13866 66825
274 72955 87558
275 73152 41867
276 30748 73750
277 47713 45563
278 15139 70006
279 35022 25245
280 16294 51382
281 58496 82963
282 41417 63600
283 61464 59349
284 6741 40519
285 25855 22562
286 76286 103269
287 62862 66042
288 39770 15657
289 17560 97060
290 38978 24226
291 60795 65863
292 44426 72427
293 38364 84824
294 65334 55136
295 43723 81644
296 65545 15590
297 29535 81900
298 66995 77503
299 7554 70541
300 4324 19659
301 -7958 91781
302 7224 89101
303 26496 59381
304 6880 63405
305 7807 82950
306 47270 88399
307 25667 99122
308 22298 24447
309 32516 69711
310 32225 95437
311 34922 21192
312 80760 79484
313 9464 50796
314 50335 89192
315 66406 50986
316 51904 75328
317 16523 92847
318 57718 86808
319 71423 98624
320 49234 89858
321 43264 79434
322 10816 75748
323 86046 91640
324 68545 39638
325 14449 59882
326 6819 73292
327 27515 83648
328 34478 62592
329 491 28361
330 17174 62447
331 5086 39819
332 11235 30235
333 91441 77465
334 29015 78527
335 70122 57446
336 58223 81922
337 20209 53593
338 42079 21348
339 11621 67102
340 9296 82778
341 68916 65293
342 8234 48778
343 46733 60704
344 50459 95823
345 55113 101398
346 89394 16396
347 2676 77829
348 3872 64111
349 11189 22963
350 25848 69819
351 39598 73333
352 31761 10988
353 1755 46488
354 74238 99234
355 33632 24352
356 51165 44828
357 31794 47595
358 70895 39358
359 53529 33664
360 32135 66610
361 11719 74589
362 8516 75109
363 -1797 19710
364 34793 13610
365 4151 94883
366 36727 64873
367 6682 11075
368 52174 85348
369 24794 89497
370 50573 77055
371 42660 58688
372 8807 61807
373 103236 75707
374 9990 48377
375 1547 76246
376 47335 103663
377 12112 61015
378 58330 47978
379 60987 80413
380 36747 27175
381 2011 108716
382 -1177 67743
383 20652 56415
384 78939 69867
385 16388 39373
386 83340 72346
387 17752 81115
388 73778 48667
389 28272 42606
390 33250 91439
391 27855 70890
392 24449 49026
393 42955 97421
394 62837 75820
395 43430 77938
396 61705 81131
397 61897 63934
398 19195 42787
399 17357 75485
400 13684 94043
401 6261 64581
402 3626 87583
403 16020 24101
404 20278 49287
405 26056 66391
406 5334 94941
407 51731 84042
408 35286 9135
409 52856 95790
410 26417 97079
411 45814 72038
412 19715 65939
413 4375 24048
414 33826 49016
415 36928 39955
416 53612 88667
417 42287 86223
418 76575 80076
419 18800 82382
420 50136 22661
421 70625 61395
422 48735 33409
423 29596 60564
424 20068 39511
425 27280 79175
426 87761 46413
427 7579 89031
428 10631 78949
429 20987 86521
430 12370 73807
431 26653 96813
432 9828 84027
433 51339 72420
434 10834 75987
435 55885 101392
436 10730 90338
437 15338 80787
438 48092 86081
439 35364 42141
440 21275 12883
441 69512 68594
442 25983 94750
443 21452 92949
444 13227 72039
445 2607 84584
446 7042 71438
447 17103 82912
448 872 90782
449 38017 96414
450 45537 98595
451 81240 67322
452 22280 60480
453 46867 44194
454 48360 76593
455 27276 69873
456 6221 25191
457 25462 100330
458 101 74611
459 54668 37122
460 37403 67091
461 70314 75835
462 43683 52886
463 16261 97273
464 12933 53877
465 73849 94054
466 64147 88025
467 69874 39495
468 36064 25662
469 59269 61879
470 20238 82353
471 37031 95602
472 45157 57313
473 46810 50616
474 87624 89495
475 17985 11026
476 23658 44756
477 27348 45914
478 70125 97933
479 65636 61699
480 15055 84328
481 34296 43288
482 64215 80843
483 14731 66287
484 95609 14233
485 40286 67704
486 62104 57862
487 25369 32407
488 20265 72910
489 12513 9621
490 9482 48306
491 22182 83826
492 27594 103707
493 52732 47954
494 35840 60713
495 74672 96882
496 17062 82496
497 21107 41591
498 98209 55236
499 45995 67043
500 -1654 31025
501 21216 75056
502 39077 72154
503 14097 69021
504 661 70031
505 68613 30811
506 12727 52161
507 87551 59294
508 24839 60488
509 26897 56706
510 68799 72470
511 30755 58407
512 42559 94225
513 36604 55793
514 49422 85787
515 10992 21986
516 61216 58407
517 44743 93537
518 8723 63899
519 38596 13746
520 56686 54456
521 90811 30058
522 19060 101885
523 43776 47435
524 37231 73008
525 16175 64226
526 34139 39639
527 22787 66145
528 -5840 48543
529 85137 72841
530 27749 37594
531 40088 75244
532 -2325 59229
533 55655 97175
534 37810 52088
535 22983 44943
536 19003 39454
537 39976 89167
538 23181 77756
539 52846 52793
540 44770 90058
541 36887 76864
542 46588 107188
543 15432 45163
544 18348 52931
545 67928 95398
546 27948 54011
547 10252 73797
548 11017 88320
549 38156 90504
550 15247 30384
551 20604 84211
552 17719 88743
553 30994 63988
554 67443 49278
555 4253 79559
556 54628 33735
557 628 67724
558 14985 90539
559 45350 63540
560 45979 97064
561 15232 76121
562 40194 81749
563 43965 71003
564 53982 77176
565 45496 81933
566 4324 52650
567 34921 40053
568 67580 94696
569 8254 91789
570 37927 86797
571 106 87066
572 33789 70145
573 12604 23936
574 30454 17114
575 25583 64739
576 55048 83260
577 35814 63626
578 47089 58777
579 13541 76107
580 63888 67387
581 84108 97560
582 64641 20255
583 47527 69094
584 71009 55353
585 63178 90719
586 1324 93334
587 38532 30413
588 17632 63557
589 19000 18235
590 9921 56044
591 87319 37156
592 32349 81188
593 77735 43876
594 24943 107640
595 58470 40459
596 70706 64811
597 45260 65744
598 53152 60277
599 72674 16802
600 20297 60268
601 20995 70892
602 15067 60918
603 13516 29691
604 33278 50533
605 19895 76587
606 62314 76994
607 73957 50988
608 10161 68867
609 14569 84380
610 75683 42049
611 24020 94629
612 22857 106679
613 26847 39580
614 35748 98217
615 42296 83465
616 3077 81167
617 11388 52401
618 53913 65344
619 54283 91864
620 42932 45358
621 64797 88176
622 48521 59372
623 65240 92295
624 52212 49526
625 49222 89994
626 56812 59039
627 25500 18166
628 97328 18668
629 1262 95738
630 10702 12616
631 13123 59382
632 25197 100208
633 47202 70276
634 25893 49648
635 51283 30612
636 27328 78226
637 49707 83156
638 7110 89464
639 35794 79310
640 -987 73281
641 27088 68370
642 20855 22571
643 53888 91577
644 16216 23972
645 68214 37867
646 36707 65992
647 6490 11274
648 61226 63063
649 83912 90889
650 41271 78536
651 67877 62922
652 21889 97885
653 15354 38341
654 43331 20091
655 72373 77903
656 25345 45102
657 74342 56195
658 1082 69324
659 21262 80153
660 41902 82470
661 101071 67709
662 10912 19885
663 29870 71864
664 18149 44451
665 21625 43331
666 13505 68040
667 72242 90116
668 -2541 76002
669 62093 70882
670 29574 9043
671 73926 43773
672 50281 79047
673 34508 87832
674 1270 27690
675 3559 16117
676 63185 41076
677 44790 64127
678 12773 56627
679 12997 89061
680 25969 38530
681 15017 69084
682 59042 42844
683 10147 15655
684 47652 59425
685 84882 60719
686 94230 85814
687 4472 70592
688 32860 41348
689 29663 51194
690 32542 66594
691 59117 78383
692 14443 52372
693 37136 43215
694 8938 87307
695 7049 66500
696 12986 95501
697 24807 94278
698 22810 78673
699 17923 43497
700 15491 97635
701 18445 37542
702 19004 67331
703 26692 19620
704 11260 62700
705 26711 17160
706 23981 66773
707 33447 52449
708 37673 101314
709 970 49327
710 28631 20599
711 11322 20063
712 14668 97000
713 18558 92468
714 47120 91566
715 25668 88425
716 39002 66535
717 50698 42017
718 3376 69163
719 5056 88992
720 1447 85438
721 17045 60362
722 73052 19269
723 3091 -1374
724 18122 43637
725 33230 68263
726 83881 77570
727 14450 76260
728 69115 73243
729 5930 67561
730 25146 59636
731 27970 73276
732 11732 45801
733 35076 63252
734 25826 62268
735 -4098 67183
736 27642 58319
737 -2106 90466
738 63395 96751
739 38319 92518
740 12979 63639
741 74189 85184
742 11199 24210
743 76521 81880
744 50185 59290
745 70949 68277
746 77431 39108
747 40625 91356
748 6075 69369
749 30516 42876
750 -883 52015
751 14314 94002
752 60842 30162
753 30928 102201
754 18325 95461
755 51741 86819
756 55667 77740
757 18393 55018
758 27002 88990
759 20224 47580
760 3667 76318
761 9184 68530
762 30047 88621
763 54298 69735
764 39158 95967
765 16161 51589
766 49495 63742
767 41580 95915
768 65861 66850
769 34232 97208
770 63481 75726
771 7464 50183
772 17680 44767
773 15675 55572
774 35198 83192
775 41852 86864
776 72046 81333
777 12918 103099
778 53375 8829
779 33678 57844
780 49085 61614
781 13172 81987
782 57788 35471
783 58307 77774
784 33133 36714
785 17505 56048
786 51113 31387
787 34519 93085
788 27872 27833
789 32537 72175
790 31945 83796
791 43343 42473
792 53248 60319
793 1431 84637
794 46996 60922
795 14301 27360
796 34749 91075
797 21098 84538
798 23723 53759
799 44244 52858
800 7961 70790
801 51696 79167
802 55115 81524
803 57427 83960
804 7165 92745
805 48006 72178
806 -1296 52714
807 31913 72200
808 46233 86634
809 29417 100856
810 35334 60564
811 52267 52589
812 31587 39905
813 4498 13901
814 71999 83143
815 51045 85532
816 9776 80344
817 58856 94119
818 71092 95603
819 82158 75739
820 55888 19336
821 79730 95356
822 58748 30220
823 36386 20157
824 62563 95948
825 20570 21156
826 16337 73764
827 54349 80624
828 -2956 99696
829 59634 43057
830 25122 35708
831 -7248 76851
832 70073 30994
833 55286 73947
834 16866 95458
835 36528 41637
836 81924 42894
837 16991 32676
838 68440 74100
839 84231 53390
840 39208 67301
841 34045 81106
842 5676 55040
843 63218 59875
844 38691 45689
845 54865 45269
846 68160 90172
847 21811 71825
848 54262 67844
849 45266 37690
850 1842 55610
851 70654 54368
852 49697 90349
853 84567 59630
854 39020 40630
855 78864 91095
856 52945 57281
857 57427 97630
858 59838 76644
859 20155 50933
860 19621 94820
861 8890 77213
862 51735 75610
863 38146 43026
864 7949 40714
865 75185 84158
866 57383 24539
867 49098 93668
868 71069 74064
869 -722 99906
870 35528 38152
871 44375 35304
872 15451 93533
873 35300 82441
874 46093 26200
875 33918 94792
876 46356 41424
877 25675 49938
878 36264 87363
879 38767 71105
880 11214 71005
881 55965 88046
882 6767 -2962
883 45980 103368
884 37464 21714
885 84045 44674
886 20549 96602
887 12724 77127
888 58061 82533
889 25841 80796
890 89419 85468
891 3686 78530
892 33142 53301
893 7066 90501
894 71403 95810
895 45208 76713
896 45355 81783
897 47687 106183
898 15167 58945
899 -6865 38546
900 31082 22758
901 70800 70194
902 18950 61602
903 23329 10832
904 27889 65927
905 62320 66025
906 1597 87903
907 46301 42323
908 62752 61727
909 31516 55283
910 10860 48815
911 46806 69547
912 66044 96383
913 38960 64805
914 31092 38550
915 -3216 85148
916 29972 24111
917 24416 86006
918 38327 39824
919 31213 89222
920 31797 92530
921 78343 50161
922 50930 75904
923 36749 54096
924 58229 47266
925 17011 80052
926 -1667 66774
927 72792 54270
928 22908 59060
929 97808 97123
930 35401 57660
931 44605 36144
932 66760 77503
933 80720 49496
934 18704 94380
935 44650 26478
936 50301 42080
937 3386 54965
938 62465 76183
939 18779 53737
940 1254 64978
941 38773 83290
942 74988 51774
943 67794 55824
944 18471 33015
945 -9903 81252
946 37338 56032
947 23436 81526
948 57232 92441
949 9055 71646
950 17154 49829
951 25014 66958
952 89570 61994
953 58063 84585
954 3572 87901
955 29754 74330
956 8491 84079
957 20855 62085
958 30252 60649
959 11672 45582
960 66048 34781
961 28573 95583
962 38259 103720
963 69399 76122
964 2641 18961
965 50372 58728
966 22170 63675
967 5032 77181
968 78874 57430
969 57760 63034
970 5318 90974
971 12205 61196
972 23804 67700
973 16053 59624
974 15222 105063
975 36373 98455
976 67021 68489
977 41084 68543
978 85111 60982
979 54873 46338
980 76723 7840
981 51222 91455
982 20596 69087
983 11670 86927
984 80197 100712
985 62036 91776
986 12250 43947
987 51965 70242
988 58563 73074
989 5384 109546
990 45163 48517
991 16624 33636
992 5410 72418
993 55219 91530
EOF
