NAME : lhk
TYPE : TSP
DIMENSION : 993
EDGE_WEIGHT_TYPE : EUC_2D
NODE_COORD_SECTION
1 80000 20000
2 13659 100702
3 37735 82267
4 7355 62835
5 -1080 37860
6 54086 98730
7 60894 38280
8 27632 36781
9 13704 3061
10 56713 74876
11 14842 44447
12 25659 51479
13 54366 83657
14 22264 97135
15 5859 65885
16 18253 98964
17 31715 89439
18 7635 93900
19 63784 79307
20 51888 39239
21 26547 102749
22 43156 72781
23 37679 93354
24 58172 109904
25 70499 27379
26 84355 91240
27 37651 19759
28 63548 36256
29 29118 98774
30 77095 41236
31 34819 63223
32 6267 86753
33 12164 34454
34 88566 38185
35 15875 58567
36 57548 55587
37 26202 88477
38 23475 42150
39 29625 42815
40 6975 96606
41 44893 89865
42 28556 75085
43 68126 92103
44 56259 50229
45 16904 93361
46 58381 42865
47 2623 33146
48 2791 53337
49 12227 85753
50 38316 42853
51 25577 88376
52 74084 84275
53 76762 93638
54 39982 86601
55 45874 65408
56 51310 27275
57 39353 64222
58 7721 50643
59 19454 85853
60 28666 48091
61 38350 82294
62 -7 15589
63 51897 93127
64 52427 37473
65 27337 20233
66 20202 33130
67 50142 35626
68 66211 64125
69 65186 63916
70 41977 53586
71 67644 52971
72 69275 86142
73 33588 96240
74 22059 94664
75 3021 31351
76 -4157 88219
77 32162 87132
78 4126 69416
79 10183 48101
80 19160 54309
81 34849 67358
82 13385 66906
83 47448 84176
84 71952 69191
85 51762 60659
86 56542 55017
87 -3538 30617
88 10865 31021
89 22122 78440
90 33671 53399
91 19 76066
92 56598 78596
93 32865 90118
94 15177 87903
95 51999 74312
96 7804 82151
97 30494 91192
98 7443 75132
99 100126 37972
100 18889 81671
101 12021 51964
102 42316 55645
103 72060 44248
104 63824 5116
105 46702 57304
106 42384 107372
107 8957 98046
108 90847 55644
109 6177 86716
110 54621 70185
111 71327 63705
112 39301 20380
113 56091 72109
114 16558 72183
115 8737 65748
116 20627 83466
117 8515 50081
118 67404 55305
119 48532 90343
120 4454 76603
121 29408 93908
122 27338 24766
123 379 54575
124 4940 43661
125 33544 86445
126 18037 42849
127 51251 91125
128 40162 53842
129 -4223 49417
130 39886 88527
131 12029 69434
132 18723 61232
133 16599 67610
134 8016 30197
135 35914 76484
136 79839 99265
137 95875 45810
138 28605 58538
139 9597 92156
140 32976 97843
141 43933 88726
142 39973 84467
143 10786 53244
144 68573 52007
145 39276 75855
146 64238 90775
147 25745 87911
148 30010 43244
149 9925 46607
150 60853 98440
151 31840 90862
152 34040 35392
153 72539 78242
154 2360 83349
155 14259 46861
156 45057 42653
157 50117 95436
158 3678 47848
159 70427 102067
160 76892 85207
161 34582 29746
162 62035 64112
163 21905 62875
164 38175 68166
165 49136 28743
166 47558 95781
167 8220 63437
168 31837 81109
169 24541 75554
170 5911 85834
171 92312 53592
172 37305 68150
173 37092 79933
174 63809 62119
175 12613 43236
176 35122 64656
177 68964 11145
178 61356 90421
179 -5574 81233
180 49590 73181
181 32385 58674
182 34717 95241
183 16102 39890
184 21814 88521
185 21624 80497
186 57710 90725
187 50203 54377
188 1630 18806
189 57087 57864
190 37469 85489
191 70981 53607
192 35737 37046
193 13517 63605
194 37518 85723
195 39648 40966
196 85439 45716
197 13631 59965
198 45562 39977
199 77441 54991
200 7799 94796
201 4575 86476
202 77215 76298
203 59914 91121
204 3401 78780
205 84002 76213
206 22933 34758
207 47567 84824
208 -1687 68061
209 52556 65651
210 51094 22289
211 34884 56921
212 23231 18454
213 1927 46865
214 424 97249
215 2241 57427
216 38413 79572
217 41335 59528
218 63288 35282
219 -1653 52294
220 4007 68704
221 18211 67369
222 29692 28345
223 5502 48961
224 40779 72690
225 2659 74577
226 47864 68979
227 39672 67857
228 10516 92874
229 20924 38014
230 57637 79305
231 37992 96321
232 30161 92605
233 74743 44717
234 30638 59105
235 4479 62583
236 46013 63170
237 10963 94952
238 37448 53195
239 59604 63156
240 45344 93574
241 14280 79597
242 47660 82776
243 83756 56643
244 87871 11078
245 22103 81576
246 50615 81119
247 30689 18515
248 1977 93262
249 47688 78851
250 13659 91375
251 42199 39715
252 71418 95582
253 34980 83052
254 37812 83545
255 20332 23558
256 8612 60869
257 36409 76554
258 37473 39212
259 4767 25594
260 52080 95185
261 78992 -2095
262 43583 32222
263 54931 52025
264 -4198 79445
265 37480 56926
266 37716 96711
267 28071 77675
268 36010 68017
269 18345 27185
270 31147 51303
271 37473 67438
272 25931 91027
273 11227 67452
274 64971 103626
275 86200 31361
276 26374 59562
277 45752 46708
278 15220 68211
279 30757 31985
280 16298 53577
281 59280 88194
282 45492 51238
283 57466 67294
284 7319 41851
285 27395 22772
286 61643 92399
287 56300 57456
288 38283 10390
289 23130 79277
290 48702 27832
291 66457 73456
292 43238 67056
293 39421 81280
294 65527 54406
295 41251 80335
296 62891 21911
297 39192 86699
298 57480 88724
299 4977 79269
300 7492 26782
301 6269 74435
302 -1425 92458
303 29870 48062
304 11905 53682
305 5236 93163
306 42415 86758
307 29311 87576
308 23691 32532
309 27872 68408
310 41848 100436
311 38261 16012
312 98628 76001
313 9297 38231
314 53934 91542
315 63459 40427
316 51329 72807
317 6082 91318
318 62778 81668
319 69303 96435
320 45475 80933
321 53613 79990
322 10643 77962
323 79686 92692
324 65169 44548
325 30561 49159
326 3632 86537
327 17959 86396
328 29317 77851
329 3866 36447
330 23433 56578
331 940 38615
332 -452 18106
333 92180 76149
334 31008 72232
335 74840 64028
336 49656 83884
337 8930 59872
338 40985 8782
339 2252 76597
340 23541 78831
341 63589 62752
342 7087 51992
343 46915 49477
344 41073 87842
345 55010 96550
346 89803 10090
347 15047 65565
348 4651 66242
349 15348 10199
350 32578 63250
351 47695 64807
352 29653 420
353 16857 50572
354 63247 92111
355 25041 23625
356 58360 40955
357 40719 45616
358 66818 46548
359 67823 33885
360 37582 58108
361 16311 78378
362 18014 73311
363 7677 22016
364 26353 9024
365 1155 82778
366 41286 61029
367 15062 11560
368 61807 94213
369 21855 86748
370 68083 84038
371 47194 46649
372 2008 78098
373 102919 83766
374 5220 45895
375 6608 72966
376 35196 90012
377 2223 60627
378 59753 36898
379 67523 88590
380 40687 38162
381 -959 93140
382 4320 65345
383 25856 61958
384 66985 69092
385 12718 33584
386 77977 66667
387 12368 89971
388 74984 57861
389 33511 32683
390 31901 94433
391 28508 64564
392 23774 52993
393 39668 101970
394 56932 69931
395 35752 86856
396 62357 79885
397 48849 58691
398 23473 46091
399 25343 64190
400 10768 80231
401 9845 76559
402 7671 76526
403 11810 11992
404 20842 38840
405 46603 77472
406 374 105721
407 50081 76682
408 37334 20132
409 48340 89826
410 19877 90861
411 39918 66319
412 26581 68069
413 5860 18662
414 31779 47833
415 36750 47255
416 53666 87587
417 41478 87468
418 75815 73600
419 20487 92081
420 45431 31676
421 72162 56109
422 48846 35854
423 27967 58757
424 21264 49636
425 22591 85396
426 67578 42797
427 4790 86285
428 13877 69045
429 32451 92835
430 15709 68596
431 31197 105918
432 25843 81393
433 56954 76810
434 6024 81702
435 55753 106631
436 10864 99545
437 10195 85289
438 32485 86554
439 25129 47089
440 33332 23266
441 51286 70662
442 23408 94873
443 14576 90361
444 24482 75343
445 17063 85143
446 3480 72987
447 99 91892
448 1541 91243
449 34978 91827
450 37210 94970
451 89588 63658
452 16312 67209
453 47272 38002
454 48786 67206
455 27988 76857
456 8327 23148
457 14348 99927
458 12992 75164
459 49367 41659
460 46273 59516
461 62790 71175
462 33666 53014
463 10087 87701
464 18552 42678
465 67711 103805
466 70245 84449
467 71106 48292
468 39998 27873
469 62362 66797
470 19250 84985
471 32659 82287
472 45088 68595
473 49075 47345
474 80417 89069
475 14242 24401
476 20709 52828
477 21528 45224
478 61815 91412
479 66243 62067
480 26121 69059
481 36195 50792
482 70914 80271
483 7479 67568
484 102628 5936
485 35145 72380
486 61150 51920
487 24300 36057
488 14782 79109
489 16251 -780
490 6969 49519
491 27403 84686
492 32348 93941
493 51217 40062
494 29380 53903
495 66323 91813
496 20303 77604
497 18918 38677
498 102128 56218
499 47584 51135
500 -11759 41022
501 5885 66444
502 28509 66157
503 17664 76917
504 5433 63883
505 64211 25519
506 13425 47374
507 95492 58344
508 14705 64168
509 30796 43729
510 52461 70695
511 23574 58107
512 54362 101555
513 47945 37541
514 42442 80355
515 546 38917
516 66519 63847
517 39906 87301
518 5421 76006
519 38620 14782
520 51042 57590
521 87417 32225
522 22378 105259
523 38120 49350
524 41092 66352
525 16922 65399
526 26498 48920
527 21850 69366
528 2841 43106
529 85965 71114
530 30885 40036
531 48372 83479
532 4271 64851
533 40627 98894
534 41147 47802
535 13642 48460
536 22871 43169
537 41258 86631
538 32005 71372
539 60937 59910
540 38128 89376
541 50655 68156
542 48556 93761
543 13529 50921
544 22677 47112
545 74045 91404
546 34849 61699
547 9503 86206
548 -777 90107
549 37531 94703
550 27630 35794
551 24684 75554
552 9176 83307
553 26048 67275
554 66496 54552
555 11213 74534
556 54581 29785
557 11209 71443
558 16050 91108
559 45820 51865
560 44647 105266
561 12903 79618
562 46083 78875
563 40903 74128
564 45515 77448
565 35849 88497
566 8138 57795
567 41279 43387
568 62339 93705
569 10804 92736
570 39478 96370
571 -491 70435
572 33497 60555
573 11457 32146
574 36820 9963
575 20990 62373
576 66544 81293
577 38955 57772
578 51927 66028
579 26736 70357
580 64803 74727
581 72238 106644
582 55162 15603
583 52397 69988
584 75265 48868
585 60732 95833
586 686 102887
587 37101 33517
588 35077 66561
589 13024 6081
590 10318 61522
591 91738 37160
592 40999 74743
593 81223 48508
594 27989 104017
595 55325 43287
596 65323 72106
597 31667 73231
598 40576 51724
599 70013 29257
600 26723 60008
601 23973 67050
602 21228 62558
603 28902 18207
604 29328 52904
605 34462 67915
606 58574 69213
607 62957 42170
608 1984 69725
609 21547 80761
610 78909 46714
611 24787 94267
612 23183 97434
613 15888 31271
614 39826 106239
615 39356 77292
616 8923 86351
617 13100 30112
618 51556 64782
619 55110 92458
620 36270 48664
621 67007 98031
622 41385 49583
623 60667 94873
624 66724 53952
625 57903 95698
626 54865 63997
627 29261 19857
628 88826 13334
629 -4687 86549
630 6016 20474
631 12789 76659
632 24082 106257
633 44616 76499
634 15747 48843
635 51238 33700
636 15210 77156
637 52138 75120
638 1537 83963
639 29918 73974
640 8418 65079
641 38932 60949
642 12031 30416
643 58147 85155
644 20468 7098
645 75065 47576
646 39950 66780
647 -4125 20218
648 52306 58469
649 74710 82282
650 31224 82885
651 67481 67496
652 26709 95706
653 2967 55156
654 44277 16343
655 65834 69801
656 16327 47047
657 60879 54434
658 9076 80170
659 20639 66079
660 50359 78373
661 89698 82095
662 17214 24120
663 32402 87281
664 14639 38389
665 29083 50771
666 4521 70823
667 65422 94431
668 -2059 69788
669 51973 72837
670 27863 15014
671 74221 39050
672 56123 74725
673 21799 88798
674 4095 17396
675 5835 11964
676 56592 50094
677 45059 71325
678 8650 49214
679 -143 91532
680 32187 45371
681 9438 77814
682 50434 34765
683 14987 13288
684 41843 68963
685 74834 55665
686 97975 93913
687 -417 66785
688 31527 49975
689 20776 58302
690 31417 75328
691 55828 88684
692 29102 55508
693 41183 27570
694 -3236 86694
695 7809 67764
696 14992 76484
697 27900 93297
698 24915 79581
699 16373 41634
700 17954 90421
701 10903 39755
702 21148 67034
703 23179 15284
704 12873 61345
705 36667 22256
706 17039 57518
707 33159 36488
708 24590 89786
709 6333 54529
710 29683 22919
711 18139 29714
712 9253 95330
713 19302 99805
714 38544 89405
715 16462 89861
716 39539 72191
717 49576 41071
718 -4502 74416
719 9086 85431
720 4983 85347
721 23449 65341
722 67563 -1452
723 -432 20178
724 26202 43254
725 27191 73480
726 76964 85952
727 28091 73696
728 70911 63081
729 10430 87212
730 32309 52091
731 20344 67397
732 13663 35124
733 39370 51638
734 21991 62313
735 -349 76399
736 26615 48980
737 587 92840
738 65617 103332
739 38166 94802
740 21728 66408
741 79509 84791
742 11327 32131
743 66732 79963
744 50773 65553
745 70438 80496
746 79054 38825
747 49187 95472
748 7765 61417
749 31239 45762
750 5254 53655
751 4582 106373
752 51811 22025
753 47048 101657
754 20160 94358
755 58005 96711
756 38399 78683
757 29224 55843
758 33048 77380
759 16996 47428
760 387 81673
761 18372 56595
762 22223 87462
763 66130 69739
764 50638 93787
765 11310 61087
766 39989 69922
767 44949 104235
768 70987 60689
769 18860 107924
770 62833 80903
771 17734 37768
772 13328 42731
773 18834 62163
774 27985 80436
775 41226 90698
776 68532 81979
777 20643 102134
778 55200 6429
779 35718 58143
780 44979 66847
781 14274 77847
782 57660 39804
783 58146 85583
784 32599 38766
785 9278 61820
786 53492 30859
787 26190 101508
788 29489 17889
789 27774 63998
790 28353 67001
791 43171 39795
792 52113 63420
793 4396 87158
794 44138 63774
795 5736 29888
796 40485 92497
797 21505 77472
798 22390 39867
799 49679 69045
800 4070 66761
801 54306 76195
802 59765 80433
803 49491 76438
804 13503 92589
805 51536 68876
806 803 44626
807 37270 74902
808 49534 77565
809 27515 92828
810 37545 58756
811 65750 58577
812 29924 38424
813 6922 7297
814 83267 92281
815 39110 86950
816 18255 93708
817 60703 81316
818 65200 98847
819 76476 81700
820 63917 20629
821 79796 105155
822 62100 31066
823 34089 24861
824 67081 88309
825 28726 35680
826 25619 78834
827 39565 74536
828 2057 101660
829 58875 37011
830 17242 33861
831 4987 87180
832 52924 18612
833 62523 69727
834 15510 91207
835 45069 36972
836 75948 36822
837 20054 18579
838 68410 75878
839 91373 47026
840 32627 69012
841 33346 89012
842 19540 52302
843 69315 57224
844 55119 40323
845 44543 43156
846 70830 100440
847 24538 73386
848 67366 73973
849 44191 47879
850 -4883 52557
851 74127 60326
852 44616 95059
853 73919 66745
854 39438 32187
855 75183 93152
856 49573 71565
857 51083 105978
858 50368 64507
859 19019 58180
860 17199 95572
861 15587 83350
862 48270 85600
863 43674 42435
864 6721 38504
865 84043 86042
866 44521 19962
867 42265 105444
868 70454 61605
869 930 93007
870 29759 37737
871 52515 38214
872 8939 97182
873 26149 75696
874 47691 25811
875 36784 103283
876 49342 55594
877 32982 59920
878 33031 98815
879 39073 63188
880 17037 67691
881 53874 82347
882 12021 6529
883 51389 104503
884 33216 20760
885 82630 59411
886 25019 82766
887 27140 79283
888 55953 84191
889 15532 69094
890 91474 82025
891 7422 86396
892 22705 50331
893 5034 74180
894 74667 101842
895 38561 66311
896 47634 81820
897 47399 91321
898 21235 61678
899 -10032 32192
900 27229 26736
901 72505 68622
902 23862 58872
903 19039 19900
904 27286 64675
905 66851 77275
906 1620 80038
907 49609 43074
908 58213 59515
909 32405 46592
910 5584 47736
911 34976 67692
912 50936 93152
913 34368 59938
914 22945 41061
915 -303 84830
916 20748 20135
917 10132 94126
918 41618 46721
919 33610 89239
920 41002 87302
921 77302 51846
922 46947 75535
923 47232 57941
924 41723 61279
925 15970 68075
926 3774 51787
927 68923 39017
928 24515 69726
929 87528 102543
930 33654 56388
931 52526 36351
932 59093 88776
933 78016 52939
934 21264 90884
935 37865 24978
936 37758 33077
937 10816 55375
938 67606 83792
939 20207 63112
940 -1521 64161
941 49532 77982
942 77270 52699
943 64445 63624
944 7570 31139
945 5884 82530
946 50423 47483
947 20023 72801
948 47719 76380
949 19861 67429
950 20079 54992
951 11068 73468
952 87612 56032
953 48152 96676
954 4142 88617
955 30948 78783
956 14219 78401
957 18126 61887
958 29522 63264
959 -3469 40219
960 60340 22761
961 28431 99806
962 41401 106668
963 73614 65265
964 -4953 24305
965 62463 63379
966 27702 68373
967 8484 64235
968 77566 54915
969 58885 63773
970 -2105 87020
971 6372 57883
972 27043 68282
973 3131 52904
974 16691 97916
975 40217 101768
976 72061 63447
977 42582 84404
978 81978 60217
979 46877 47993
980 85802 12449
981 60591 92734
982 18659 58251
983 5397 85244
984 81187 99973
985 62761 95521
986 8719 25084
987 52070 71873
988 49167 69597
989 11029 97721
990 29926 50703
991 2679 36573
992 2539 67092
993 57194 87094
EOF
