NAME : lhk
TYPE : TSP
DIMENSION : 993
EDGE_WEIGHT_TYPE : EUC_2D
NODE_COORD_SECTION
1 80000 20000
2 4500 96367
3 23591 76772
4 12984 64026
5 -4071 27552
6 51262 94103
7 65738 21029
8 39167 42516
9 26845 6748
10 60406 85038
11 6747 34335
12 25678 36388
13 54692 80309
14 13781 89892
15 -1588 65705
16 24753 94920
17 22706 81198
18 16899 93038
19 63290 77664
20 48655 29835
21 22144 106400
22 34872 70411
23 45344 100956
24 47637 98226
25 72417 28661
26 87297 85191
27 42958 13172
28 57841 36668
29 30551 98966
30 81565 38182
31 40688 64167
32 8729 86069
33 11322 37130
34 83933 44789
35 24171 64215
36 53654 59649
37 29749 98655
38 17359 51049
39 30564 42578
40 8542 90434
41 54458 90773
42 28258 79336
43 75430 97151
44 60050 30813
45 17258 95557
46 74156 37314
47 4234 33134
48 -4845 54233
49 12286 83858
50 37230 48145
51 22893 89439
52 73155 77546
53 67722 93369
54 37967 94282
55 47522 59690
56 50051 22986
57 32340 59776
58 7236 48546
59 18673 92948
60 26229 56842
61 33674 86837
62 3673 18373
63 56073 94048
64 52216 42682
65 33802 18923
66 18835 39935
67 60856 41537
68 72824 71892
69 61065 56037
70 49823 44113
71 65885 40153
72 74748 77048
73 37412 99521
74 21659 94040
75 3869 25056
76 5625 82377
77 32936 92047
78 6146 65811
79 19098 41034
80 24514 59525
81 34210 62761
82 9735 75536
83 40334 76354
84 69441 76759
85 49900 65752
86 59897 49884
87 9952 32252
88 10754 24855
89 27605 77617
90 32966 54524
91 -5913 83910
92 51922 73141
93 33024 89159
94 24736 80502
95 48381 73099
96 3419 87332
97 39727 90901
98 4320 71601
99 94378 34205
100 22601 72644
101 6905 50121
102 48070 55382
103 68889 56423
104 65751 5866
105 33816 69050
106 41080 90247
107 5828 90315
108 91155 58424
109 16658 83160
110 53751 70874
111 81060 68065
112 39060 13817
113 63997 76986
114 16217 70128
115 14609 66004
116 19026 104795
117 -2777 56103
118 62687 39606
119 56325 89883
120 11345 75635
121 38363 93534
122 19054 26581
123 1480 48036
124 7655 41842
125 33862 75111
126 15821 36351
127 45805 83525
128 44413 50363
129 -7679 42487
130 33489 89877
131 17892 65368
132 10052 63264
133 28289 64549
134 6517 33255
135 41743 70894
136 77827 103582
137 82373 61146
138 39177 68717
139 13029 91171
140 38580 92902
141 41909 82834
142 29583 86213
143 15938 51908
144 70701 38651
145 54076 75133
146 62526 95966
147 39951 95417
148 33921 54545
149 11431 34073
150 63136 89217
151 24854 101949
152 27664 32972
153 70333 67954
154 12141 81821
155 10161 44063
156 46886 43895
157 49539 95961
158 3623 41634
159 66593 102228
160 75153 85059
161 30945 24047
162 57664 56812
163 7958 74213
164 37432 56451
165 56917 22067
166 41313 97584
167 3528 54722
168 28069 82625
169 15664 78198
170 13652 89072
171 98418 53720
172 37551 59009
173 38188 89384
174 59857 62133
175 8660 51173
176 45808 64726
177 65370 11612
178 67070 93645
179 3888 81704
180 47583 78239
181 41450 48724
182 42877 92904
183 19358 48701
184 17006 97033
185 18511 80962
186 68233 101443
187 56039 55894
188 1760 17678
189 57187 60376
190 37496 88726
191 70896 66785
192 47809 36135
193 12091 64780
194 48034 85539
195 51219 47921
196 81153 51151
197 19199 55648
198 43533 31800
199 87555 59033
200 7592 94389
201 2421 96321
202 65271 64700
203 57913 95406
204 4927 88910
205 90208 69169
206 24914 34801
207 43829 93259
208 -5059 83553
209 53407 59078
210 52775 21075
211 37287 46943
212 7225 10533
213 14790 48461
214 6315 87608
215 5793 55229
216 52274 83692
217 47811 61265
218 58181 33279
219 12721 56380
220 8579 66744
221 18677 71586
222 20820 20062
223 6326 50942
224 29303 83608
225 5509 78561
226 51396 75404
227 37541 73688
228 14133 98886
229 8006 39740
230 59582 85774
231 34323 90499
232 36977 95027
233 70071 46408
234 24382 61240
235 5371 60076
236 38483 60773
237 18074 90955
238 34853 53988
239 66191 67450
240 43794 96455
241 4371 74115
242 37546 84365
243 82425 56402
244 92550 10644
245 12813 87055
246 50447 84102
247 31688 11332
248 10063 100552
249 43705 73062
250 12554 87344
251 49186 41031
252 66537 87770
253 35128 76800
254 23665 96869
255 30012 25730
256 2536 69350
257 43001 79938
258 46245 38129
259 3760 16306
260 55164 81369
261 90347 5390
262 39096 22531
263 46027 49113
264 6127 81546
265 39757 53849
266 37647 96984
267 34684 73347
268 24041 53262
269 23170 25081
270 31575 50073
271 33463 76067
272 30504 90738
273 10164 77613
274 74072 86943
275 81320 44837
276 30292 65634
277 46927 47395
278 9111 66635
279 35867 27392
280 27247 55480
281 51362 71719
282 42454 56071
283 62926 56993
284 10007 39058
285 31575 32499
286 71723 94621
287 59462 54409
288 34041 12571
289 17250 95240
290 46464 27057
291 78139 74713
292 34996 65205
293 37596 93771
294 68427 53640
295 39491 74697
296 55403 16870
297 39293 87511
298 70471 78727
299 22 70373
300 11061 20219
301 309 85094
302 8592 82825
303 19921 49928
304 -1407 59693
305 11679 97027
306 40982 99795
307 26050 100358
308 28425 21983
309 34535 66616
310 40170 101349
311 34961 19013
312 90027 77663
313 1926 37846
314 53481 92096
315 63127 40278
316 53931 71184
317 7616 93240
318 63906 89895
319 70192 85312
320 52329 79131
321 47398 86146
322 7021 73872
323 79362 89585
324 71708 47031
325 28269 50748
326 4491 74283
327 13351 71036
328 29556 69569
329 4179 41448
330 20778 66147
331 -4026 46595
332 -586 23765
333 84763 73236
334 31938 72513
335 71937 63107
336 65117 87510
337 7983 46435
338 34338 28817
339 17037 63974
340 24002 84950
341 65833 75859
342 11570 49827
343 44329 59642
344 45473 90499
345 60722 103256
346 96949 11155
347 6088 78637
348 0 63155
349 22722 11082
350 23611 63125
351 47170 74668
352 31713 8486
353 10253 47689
354 65088 97154
355 14850 20611
356 61598 37379
357 45378 39370
358 70932 41468
359 69262 36708
360 29506 62461
361 18548 83119
362 15150 79375
363 11972 22264
364 35968 11086
365 608 79309
366 27009 63920
367 11107 12458
368 45212 88868
369 21194 97235
370 56557 82244
371 39966 56127
372 2461 62459
373 91346 81438
374 8758 49276
375 13632 79335
376 50903 99677
377 14027 58930
378 59237 29363
379 52548 78304
380 36369 26827
381 8929 102526
382 -1254 70420
383 25731 60617
384 77160 71108
385 5892 36851
386 83346 78903
387 7550 89806
388 87870 55887
389 31266 37940
390 40785 90376
391 28165 68882
392 23240 61321
393 32552 94752
394 68729 63522
395 35941 78661
396 55207 80092
397 53062 55927
398 26816 44756
399 9328 74550
400 13661 86092
401 9698 72945
402 3624 87536
403 15024 22076
404 19992 47551
405 42212 74355
406 6046 91480
407 45207 77308
408 32966 12288
409 56734 80950
410 24728 99279
411 33871 57832
412 19649 66693
413 -813 19669
414 35671 50577
415 26531 52848
416 51850 76070
417 48021 90231
418 77859 85465
419 26875 89052
420 45924 26586
421 73328 60405
422 33010 34854
423 10766 54742
424 11405 50315
425 15123 87705
426 78093 47894
427 -7733 80118
428 5315 78636
429 21697 90419
430 11477 65705
431 21302 96464
432 18562 70148
433 56865 68796
434 5913 77785
435 54475 99298
436 5366 101935
437 15638 76739
438 38062 79433
439 23050 40790
440 24166 20448
441 59619 59233
442 17225 105804
443 10650 85696
444 21083 76765
445 4839 83391
446 3817 66550
447 4481 83877
448 9011 80025
449 36037 101035
450 41622 95330
451 85431 74383
452 22658 66816
453 52109 38517
454 45884 70544
455 31974 79160
456 4283 27522
457 13685 97156
458 8851 77144
459 50654 36078
460 33510 60055
461 69224 75954
462 41680 51802
463 16076 94865
464 3340 48176
465 54825 101722
466 72229 82893
467 78995 51254
468 37670 31774
469 58598 71975
470 24594 83294
471 28836 94884
472 33593 54280
473 52415 42713
474 85645 83197
475 18398 22733
476 26822 51063
477 25861 44149
478 53850 84548
479 62263 66246
480 27672 72076
481 40857 43005
482 70442 73272
483 14090 69110
484 99411 8306
485 46621 62105
486 59864 53643
487 16541 37379
488 28652 73343
489 8970 -216
490 3718 52104
491 23135 83179
492 32760 101308
493 56414 52047
494 28444 57486
495 68602 88181
496 18064 88836
497 18666 44050
498 89066 52173
499 58733 50805
500 208 41226
501 14109 65575
502 31932 73479
503 8796 62739
504 2846 73061
505 68611 23084
506 5922 57432
507 91572 54304
508 21943 59084
509 24889 56366
510 62911 83350
511 31937 54562
512 55419 96574
513 40786 57023
514 53801 77858
515 1007 42053
516 62618 54300
517 40388 86198
518 174 72378
519 42387 14876
520 59023 52275
521 87959 36369
522 13699 104439
523 37233 53849
524 30687 68083
525 14525 63875
526 20175 46699
527 22352 78720
528 7900 63235
529 82347 82159
530 41637 37237
531 43669 84521
532 13658 63906
533 49845 105617
534 38269 57804
535 13300 47818
536 27151 41610
537 56459 95125
538 35749 75967
539 54598 58764
540 43452 92974
541 41384 69212
542 48599 99343
543 8101 49779
544 23018 49429
545 65187 96070
546 16453 51554
547 -5186 83803
548 1017 76877
549 37449 91190
550 17190 38460
551 20024 75101
552 12661 84052
553 19984 78720
554 78255 52245
555 -1122 85625
556 60474 34063
557 2308 81899
558 14036 83141
559 47803 62810
560 40246 97367
561 20977 75514
562 41616 81986
563 46096 87238
564 44471 88022
565 34480 78742
566 13003 52953
567 33506 46085
568 74012 86870
569 15666 93590
570 44189 97332
571 6531 77015
572 29331 65775
573 10778 20740
574 44639 21886
575 30848 74580
576 48098 82140
577 41698 63357
578 59244 56124
579 28906 74542
580 73882 71097
581 67728 107498
582 52829 13851
583 53356 67230
584 72112 49581
585 51106 92855
586 292 92080
587 43846 33196
588 16937 60963
589 11350 15784
590 17226 69611
591 85926 23530
592 32108 71970
593 84959 51475
594 18858 90022
595 57852 41974
596 63777 60790
597 36207 67182
598 55531 52458
599 68108 21493
600 28736 61354
601 27158 69957
602 23091 64784
603 21830 22264
604 23338 46203
605 35880 78960
606 57396 64671
607 66475 42677
608 -6212 73090
609 21593 79783
610 78560 43925
611 29215 85880
612 28718 102663
613 26949 36969
614 40792 107390
615 35588 80618
616 1195 83888
617 12350 43728
618 54648 70461
619 52514 89975
620 32647 55807
621 68251 100938
622 45856 56426
623 67530 84776
624 45514 56256
625 55546 94293
626 60864 64350
627 30188 21416
628 106550 19117
629 13798 87500
630 14828 2453
631 9590 65373
632 27986 94675
633 50483 73677
634 14460 53355
635 64561 47299
636 14874 71650
637 49276 82343
638 -4374 91030
639 30796 85052
640 2253 76020
641 29654 61814
642 19421 28795
643 46175 88338
644 21400 24055
645 69687 39659
646 32156 65308
647 8439 4880
648 63646 56258
649 82117 85292
650 41456 87500
651 63714 62504
652 23698 85995
653 9256 46255
654 40529 22272
655 69568 71523
656 24741 45381
657 71613 66106
658 3520 71783
659 28115 74850
660 54785 85872
661 98681 76664
662 17303 18089
663 41415 82461
664 8017 49298
665 33363 39752
666 3892 67393
667 71772 89193
668 -2455 65125
669 58002 66534
670 26948 11291
671 73245 46355
672 59027 75478
673 31359 87344
674 12219 23893
675 5581 9886
676 66982 36261
677 47375 63119
678 11862 56840
679 1093 89938
680 21980 43890
681 8024 70343
682 51128 43533
683 7293 15441
684 36289 55377
685 86807 54287
686 101869 88264
687 -696 79604
688 31169 49000
689 33671 56569
690 29587 74480
691 48495 94468
692 17394 57026
693 38813 39120
694 12789 96503
695 6540 72913
696 21080 84085
697 27439 83810
698 27440 75142
699 16574 54305
700 13164 88082
701 25155 33059
702 26817 78530
703 32348 21578
704 3073 67424
705 33477 12693
706 24768 54595
707 28000 47970
708 40222 98099
709 -2304 44579
710 22721 21224
711 15940 25195
712 11201 101674
713 15043 97605
714 46037 90161
715 22049 99796
716 41298 56945
717 51586 38073
718 -3981 61825
719 -1812 88086
720 -1540 87380
721 26288 62625
722 77278 10594
723 12830 10278
724 23361 43735
725 46057 73395
726 82705 88060
727 19280 75426
728 67660 72242
729 -3305 75648
730 27127 71524
731 31548 76956
732 9547 31656
733 48071 57902
734 18869 67239
735 7385 64003
736 15472 65561
737 4408 83667
738 55875 99631
739 40985 93649
740 13094 69147
741 77099 76157
742 9006 12370
743 78279 83386
744 46024 70409
745 73057 73295
746 78878 38945
747 53883 99709
748 1042 57640
749 30848 43689
750 -1521 43652
751 10146 99105
752 56797 22113
753 42696 108791
754 19692 91178
755 55486 91276
756 53256 75057
757 37805 56280
758 25206 81382
759 11090 45340
760 7843 92624
761 7747 60111
762 19654 86879
763 53383 62947
764 40752 89840
765 13232 63907
766 42800 54252
767 33615 91326
768 70290 57106
769 25349 90411
770 51863 73684
771 2249 44757
772 8012 46357
773 15840 60608
774 30325 86191
775 44519 92964
776 66852 89196
777 23171 98402
778 65313 7603
779 23669 52765
780 44524 67441
781 8106 80812
782 54856 33841
783 54840 80274
784 29228 45855
785 16270 54479
786 51443 30915
787 23321 93184
788 24789 24451
789 21963 60879
790 25417 64699
791 37125 46997
792 55916 63580
793 5084 82097
794 59132 50754
795 905 22571
796 28239 96859
797 8019 68749
798 25185 40853
799 44808 57540
800 298 64416
801 51562 69668
802 62415 81069
803 60623 77744
804 9073 87404
805 47049 57450
806 14594 55170
807 26574 83264
808 41646 80800
809 25809 103175
810 38162 58589
811 67210 61360
812 31980 36813
813 -1223 12036
814 62420 93906
815 48390 81887
816 6558 86132
817 65247 80414
818 67777 84988
819 67422 70289
820 60884 21283
821 88953 101047
822 64429 33369
823 29710 32743
824 63509 82020
825 23229 23976
826 16145 83211
827 48664 80406
828 9112 103800
829 60155 33493
830 16645 40818
831 13168 82289
832 57038 20913
833 51562 70971
834 19424 92865
835 33318 24462
836 87908 41857
837 11916 27270
838 71548 83412
839 88557 51469
840 39864 56909
841 37012 75939
842 10228 47904
843 62451 52856
844 57614 57117
845 43795 37356
846 62066 90365
847 19666 67086
848 57195 72289
849 42851 44396
850 2641 55301
851 68123 55920
852 48038 88657
853 72295 61698
854 35282 28868
855 67992 83479
856 41098 64448
857 57457 97723
858 54117 73003
859 12849 45238
860 27325 80298
861 16902 72887
862 56997 76900
863 37875 39322
864 2121 42648
865 82287 85125
866 51458 29190
867 32892 92075
868 58256 66389
869 -7903 97273
870 34074 31988
871 52774 46448
872 23411 99108
873 33106 78932
874 58117 31119
875 43692 99645
876 55653 45700
877 34464 48577
878 44019 83219
879 24460 72180
880 6812 69712
881 50376 78925
882 8497 1784
883 51499 93356
884 28050 17428
885 89137 53461
886 19560 88430
887 9114 82225
888 57939 84134
889 30648 78068
890 100916 90752
891 -2384 84243
892 35280 47303
893 6325 79341
894 74811 90247
895 47927 74982
896 54122 79299
897 51216 96868
898 19686 58548
899 -3369 37218
900 20684 24460
901 77550 71229
902 26278 55550
903 21578 21378
904 38747 62012
905 70494 62712
906 11657 87786
907 49867 30479
908 60775 60981
909 16893 47463
910 7831 38060
911 32722 71155
912 62959 102965
913 34871 60271
914 29226 57803
915 5456 90368
916 24980 26998
917 4883 83630
918 48798 46563
919 31635 86827
920 30994 82308
921 86456 55724
922 40187 77489
923 32527 55502
924 47170 66079
925 16178 65269
926 12788 60964
927 64214 50956
928 23794 66663
929 86397 98893
930 33077 46201
931 56534 38255
932 62856 82647
933 72815 51258
934 13830 93109
935 47370 21414
936 45060 36410
937 10061 50827
938 62050 82761
939 19928 52965
940 377 68350
941 46266 81481
942 72607 56373
943 62630 54845
944 14815 31407
945 5651 79579
946 37345 46816
947 13336 76144
948 51575 86073
949 6284 66062
950 16950 56237
951 15928 80958
952 83694 52804
953 59859 97986
954 4673 94031
955 26309 86451
956 9739 81254
957 16991 58754
958 29494 68625
959 3213 39845
960 61202 26543
961 29573 99345
962 37284 100437
963 70362 70395
964 10980 29488
965 63859 60440
966 37137 68858
967 -888 66452
968 76925 59258
969 48617 71823
970 11075 96553
971 11269 66246
972 32364 61594
973 6592 57754
974 15335 88421
975 41120 97814
976 77867 75182
977 42506 86132
978 83576 59049
979 68481 41919
980 83209 8819
981 52613 90604
982 10266 61730
983 14411 96213
984 78921 97803
985 61532 91533
986 11750 34478
987 57485 74429
988 61275 69583
989 1807 99985
990 38986 45852
991 16804 37047
992 7839 79233
993 56560 90229
EOF
