NAME : lhk
TYPE : TSP
DIMENSION : 148
EDGE_WEIGHT_TYPE : EUC_2D
NODE_COORD_SECTION
1 80000 20000
2 70119 13854
3 72809 18116
4 69649 17287
5 67406 41309
6 66234 43458
7 62406 41066
8 55175 39913
9 56474 38554
10 54627 20990
11 55519 41620
12 52767 36619
13 54907 33954
14 52021 43842
15 42248 44550
16 42134 44581
17 23858 33650
18 34927 42689
19 31765 44976
20 26766 43925
21 19530 62657
22 11640 44740
23 31419 53639
24 35535 50542
25 41217 45471
26 36275 71099
27 31995 59449
28 49788 56472
29 22851 62287
30 31372 70594
31 22631 83865
32 30883 69561
33 16934 68544
34 41064 72337
35 39921 81951
36 28752 87901
37 18856 85843
38 27796 87900
39 32034 87907
40 35671 87860
41 35576 87912
42 28496 87891
43 23247 87877
44 28823 87901
45 22662 87482
46 29042 87902
47 25985 88452
48 26993 87269
49 31194 88727
50 19941 85582
51 21361 87263
52 10309 80908
53 9301 88959
54 10303 88474
55 9924 88072
56 11003 76827
57 8638 74089
58 11382 72228
59 12376 70916
60 18019 63482
61 15996 64458
62 13417 58076
63 12225 58147
64 18577 65850
65 11957 56912
66 46960 88634
67 44318 88895
68 40247 84407
69 44778 82350
70 45304 82726
71 50357 88813
72 46960 88634
73 48056 88668
74 48560 88967
75 54591 88892
76 58064 88773
77 61943 89138
78 63676 87781
79 80136 88777
80 75551 90084
81 78152 90287
82 79478 88632
83 85038 66261
84 84664 82279
85 87279 77434
86 76932 71954
87 61493 67546
88 64365 67217
89 62725 68294
90 61406 67642
91 49788 56472
92 22933 33411
93 31331 24400
94 29724 30135
95 27160 28875
96 42493 19748
97 30865 24900
98 38328 22839
99 40208 17578
100 30381 25419
101 33822 20575
102 13917 20830
103 11118 16288
104 11013 16039
105 27867 28117
106 11060 22416
107 13202 25419
108 11195 16356
109 11111 24359
110 11743 48654
111 11196 27636
112 11312 32091
113 11640 44740
114 11926 41912
115 10012 46754
116 11070 51099
117 20880 43513
118 41290 52128
119 19988 52837
120 11772 49770
121 11957 56912
122 16173 58670
123 18019 63482
124 40030 63328
125 58008 63268
126 70056 63265
127 84165 62074
128 80807 58968
129 79907 59476
130 83944 55684
131 63178 74185
132 46960 88634
133 43191 71829
134 44013 70260
135 41391 65570
136 43339 65404
137 49788 56472
138 57993 63202
139 50014 67508
140 65070 63909
141 54093 65854
142 58458 47392
143 58389 44815
144 74364 34035
145 79247 28781
146 84410 23618
147 84780 17813
148 85274 16551
EOF
