NAME : lhk
TYPE : TSP
DIMENSION : 993
EDGE_WEIGHT_TYPE : EUC_2D
NODE_COORD_SECTION
1 80000 20000
2 13883 98547
3 32372 86293
4 10274 64610
5 12658 24790
6 51222 103257
7 59308 23018
8 34441 40076
9 21682 16885
10 59776 65293
11 9711 27390
12 22567 32156
13 52691 84508
14 23465 87737
15 4747 79680
16 14320 102496
17 36461 75780
18 14307 92978
19 64634 83271
20 50674 35421
21 29645 99533
22 36831 72205
23 36439 81167
24 55376 88411
25 69042 18096
26 98271 89580
27 42720 16115
28 62098 38695
29 25670 95855
30 80918 36998
31 35460 59488
32 11274 89200
33 15547 34578
34 77756 30480
35 13648 52602
36 55490 59659
37 26451 90679
38 25540 43688
39 32193 48408
40 2024 87770
41 53358 87524
42 24464 93703
43 63499 95216
44 54831 41033
45 26489 88349
46 67581 44114
47 6364 39922
48 6469 54498
49 11131 76625
50 28919 42752
51 25412 85197
52 73680 71331
53 70576 91282
54 33552 89515
55 36939 59944
56 61524 27500
57 37242 63570
58 11208 46130
59 20148 87570
60 33522 52784
61 29632 78205
62 2019 16323
63 54674 99515
64 49439 43196
65 27215 18864
66 25009 32639
67 51032 40391
68 55042 65697
69 63834 64835
70 49099 45234
71 63266 51830
72 63322 71411
73 28671 93446
74 34595 95536
75 8287 26068
76 3635 78537
77 32007 89513
78 -59 64141
79 21968 43126
80 22601 56793
81 47128 62315
82 15184 65945
83 44377 81503
84 63178 72772
85 45848 59950
86 56860 59187
87 -6759 35146
88 14138 32199
89 19458 83386
90 30880 42744
91 10233 87843
92 44815 70638
93 43179 94472
94 15586 86035
95 51446 73789
96 11826 79236
97 33522 93580
98 15533 76991
99 92405 31542
100 24538 80136
101 4235 60150
102 47691 55204
103 72836 66865
104 64146 -7780
105 39803 70422
106 42513 99325
107 7994 87385
108 90434 44732
109 7938 86131
110 63057 70376
111 73232 64455
112 25234 15812
113 53390 76737
114 14023 74996
115 17155 60637
116 17578 98221
117 -10495 54881
118 66585 46368
119 65955 94926
120 11796 60244
121 26971 90516
122 27672 34450
123 11557 57082
124 9868 46551
125 41972 81180
126 17781 38268
127 48978 81572
128 42891 52767
129 5552 38168
130 40539 89277
131 19351 74358
132 12455 54067
133 27005 59735
134 1395 30380
135 47775 66061
136 82753 101866
137 85723 51633
138 26846 58514
139 17191 93908
140 38374 97058
141 53345 83513
142 31353 87436
143 18098 44560
144 68448 46188
145 43310 73342
146 65323 88790
147 33280 98216
148 34688 49432
149 13608 35133
150 74032 98342
151 26989 94266
152 27642 40125
153 69606 64499
154 -1434 88663
155 3823 40049
156 49208 52176
157 47986 95187
158 -194 48603
159 68502 94405
160 76704 79142
161 39386 33052
162 45100 59982
163 12564 82976
164 40497 69672
165 39984 29361
166 42486 101507
167 -1457 58572
168 28874 82651
169 17994 80466
170 455 81257
171 93145 52161
172 45081 63591
173 39236 98434
174 69632 77912
175 11716 40768
176 38126 66532
177 71839 2459
178 70106 95912
179 7602 79031
180 52065 89476
181 48891 43970
182 30067 99721
183 5269 45819
184 15583 91434
185 17002 88729
186 67455 99638
187 53091 47222
188 1204 18394
189 47437 48872
190 37896 78052
191 64730 47000
192 35627 44834
193 9989 68584
194 44726 81966
195 32973 43275
196 81795 39875
197 6455 53158
198 56126 31047
199 93133 57191
200 17165 88655
201 1136 88970
202 80705 66189
203 49270 83219
204 8459 77953
205 87484 75605
206 29444 34297
207 42153 100966
208 2093 67964
209 57110 69024
210 42451 24682
211 47738 60826
212 17382 15708
213 -2099 43609
214 2264 88078
215 3470 55013
216 39690 81292
217 55626 66975
218 56299 44257
219 1668 55077
220 14814 63902
221 27803 71369
222 26835 30243
223 5814 50192
224 34894 85100
225 -16 74365
226 41952 72700
227 40955 74360
228 29747 98678
229 16698 46114
230 57834 79240
231 35024 86155
232 33126 89386
233 67594 41741
234 22140 57868
235 10116 63774
236 41060 72052
237 8960 90963
238 37181 53805
239 61813 73179
240 46534 94971
241 -2941 82134
242 37014 77989
243 84811 56892
244 86628 2466
245 20992 91817
246 48948 91203
247 28324 19057
248 11691 95528
249 43697 81084
250 20322 87135
251 57023 24170
252 71459 98476
253 27236 78719
254 34240 82436
255 19738 17052
256 -1788 74435
257 29656 89227
258 43537 30756
259 -2476 17463
260 50818 96711
261 84743 2903
262 35985 28889
263 53066 57817
264 3328 86722
265 46681 60403
266 37802 104713
267 17827 63789
268 24332 54856
269 9239 22452
270 34977 48322
271 36763 80237
272 35420 96493
273 11087 60188
274 67354 89564
275 76180 30928
276 21300 72143
277 51506 53728
278 7882 78623
279 34188 37649
280 19370 54529
281 52677 80071
282 37998 54427
283 49394 68726
284 9560 40730
285 23593 27162
286 66279 83003
287 55518 56126
288 44579 11812
289 28782 91465
290 39911 30565
291 70232 72456
292 40915 66725
293 39899 93869
294 59059 58035
295 39780 78875
296 61025 17585
297 28860 74775
298 64872 77036
299 978 74744
300 6292 21782
301 -1007 86237
302 7421 88742
303 38558 49066
304 8164 51435
305 6574 87702
306 46722 91309
307 24813 98288
308 18033 21191
309 34081 66711
310 41219 94003
311 29878 21472
312 94071 72053
313 -1032 43025
314 46913 97245
315 61874 41048
316 55787 82065
317 12079 86467
318 57052 82572
319 70919 92223
320 37733 83002
321 44960 84551
322 5950 85582
323 79905 96876
324 70002 44881
325 26765 47970
326 12183 80186
327 13671 76918
328 24476 67652
329 -1246 35669
330 18627 65225
331 4996 35548
332 -1185 28564
333 83104 77817
334 22382 76265
335 75389 59344
336 49422 76979
337 15644 55584
338 43125 25966
339 4061 68309
340 18341 78250
341 64825 63734
342 12607 57731
343 40304 54119
344 43829 90109
345 54620 98334
346 93579 23340
347 8284 76148
348 -2779 61308
349 11470 16803
350 29316 66142
351 36369 82901
352 24747 8581
353 13790 52073
354 66104 90381
355 20423 19348
356 52114 36712
357 47159 39969
358 57561 44824
359 65132 38234
360 33240 65747
361 18982 85252
362 25724 68990
363 14459 13515
364 33416 12898
365 835 81600
366 33444 63584
367 11385 16422
368 48911 91816
369 26758 98172
370 56816 75732
371 40340 60012
372 1711 72664
373 97522 84452
374 6534 48446
375 10236 82930
376 51222 96100
377 8903 62613
378 55568 33597
379 59829 70011
380 37228 28826
381 1448 90113
382 5914 73806
383 23709 58786
384 79370 66620
385 6894 39932
386 79801 69593
387 4865 87929
388 88383 55221
389 27615 41811
390 42851 103974
391 35790 59221
392 27963 45586
393 34895 97916
394 65634 62008
395 37601 98246
396 61127 83710
397 51822 56813
398 33703 43359
399 21691 72777
400 15198 96715
401 20262 77242
402 3337 86868
403 8853 13368
404 26981 49861
405 32114 60051
406 11323 88497
407 50182 87116
408 32858 9229
409 47546 86730
410 24212 96937
411 48735 68374
412 18976 66102
413 3568 13817
414 31385 51139
415 22659 46072
416 51317 84424
417 40795 88034
418 77184 84789
419 21224 87074
420 47484 20521
421 65485 50566
422 52746 32373
423 22006 54121
424 19482 48984
425 20134 80070
426 81627 58019
427 4754 91953
428 6124 69957
429 32864 94841
430 12713 71967
431 25315 99891
432 25030 82394
433 51442 78400
434 968 76512
435 49672 110150
436 13742 94903
437 8226 80291
438 44833 84888
439 20282 52234
440 32320 15329
441 56173 71046
442 18282 87754
443 13325 86806
444 15665 71374
445 -2794 79551
446 -632 75127
447 9468 88986
448 3150 88307
449 41845 91259
450 32848 90641
451 91132 72869
452 23652 50392
453 44531 44104
454 52321 55683
455 25506 68462
456 3899 23764
457 26892 99673
458 3845 83018
459 48486 35823
460 48366 61560
461 61455 76836
462 37068 58670
463 17434 101827
464 7875 49759
465 65829 96691
466 61617 76510
467 73624 41004
468 41298 36870
469 58803 75169
470 25788 91889
471 23705 97970
472 37894 67392
473 49875 45814
474 87632 89652
475 19903 22085
476 31928 49017
477 16483 45162
478 67149 85646
479 57917 58587
480 16889 74513
481 38492 40937
482 64795 86099
483 9721 62709
484 106192 9598
485 41019 80530
486 67672 61210
487 21118 40626
488 25842 76929
489 28730 9475
490 2406 43206
491 32182 79624
492 28025 102001
493 54236 47763
494 29274 60187
495 88049 92000
496 26249 84818
497 15436 45806
498 96071 57371
499 54878 53359
500 6347 35878
501 6590 76246
502 28676 63226
503 19238 71956
504 2911 66860
505 58962 28011
506 17914 53379
507 87403 56826
508 29067 59841
509 23492 51312
510 51493 68649
511 29918 55425
512 53390 100302
513 43344 47570
514 46012 75171
515 576 19921
516 54283 57146
517 53630 92736
518 -976 69264
519 41295 7791
520 54482 51910
521 82923 38112
522 27908 107399
523 44549 46039
524 41239 72292
525 25044 69899
526 20172 40822
527 20098 71850
528 -2130 49676
529 81813 68254
530 22740 39607
531 46603 89822
532 11838 55289
533 47038 94250
534 38236 55983
535 988 49421
536 26994 44788
537 56149 92928
538 27840 75174
539 61805 58990
540 36602 91171
541 39548 75275
542 52538 99979
543 6164 52055
544 30531 55135
545 69953 98102
546 28872 53056
547 800 88629
548 4882 82155
549 33941 85686
550 31902 34777
551 25661 80060
552 13980 76457
553 21090 68653
554 70469 48649
555 9669 85716
556 46557 31206
557 11275 84290
558 10173 100076
559 41691 68122
560 43128 105200
561 17467 75494
562 35629 83114
563 42375 84821
564 46666 74047
565 46450 80117
566 7076 51417
567 49500 37094
568 71330 90981
569 8269 88746
570 38195 98676
571 6915 79150
572 31102 62235
573 15387 23526
574 36364 15268
575 33370 78536
576 65589 81116
577 39312 61845
578 59706 50499
579 18800 82533
580 75212 75784
581 70414 103933
582 65955 24979
583 56129 80422
584 63222 52264
585 49277 89656
586 -1397 99356
587 42672 33978
588 25651 65682
589 11653 18797
590 13648 65192
591 89590 32742
592 22797 64304
593 71728 43387
594 21501 100953
595 46317 40697
596 74797 68115
597 32598 59651
598 47249 61768
599 72559 11889
600 16000 59660
601 23435 69997
602 28062 74100
603 31924 30707
604 30990 53713
605 27479 70709
606 58737 72263
607 57425 44420
608 -8761 68441
609 25582 89168
610 79314 40843
611 18990 88965
612 35089 99829
613 23468 27359
614 39371 101662
615 41027 87599
616 3980 75424
617 6015 44474
618 54743 67572
619 45927 88967
620 26829 50045
621 64641 99824
622 43708 57871
623 66447 83816
624 55742 49825
625 56682 106089
626 57282 58979
627 28239 17257
628 94478 18123
629 4725 83112
630 12918 -1025
631 17818 70192
632 38851 99036
633 51864 73702
634 17765 51080
635 59416 30846
636 23092 74442
637 52946 80663
638 1481 90407
639 29297 80117
640 -3006 83496
641 32210 70333
642 21298 33828
643 51729 81503
644 20028 14612
645 64436 45553
646 31140 62475
647 -1684 12440
648 63376 61648
649 88185 78574
650 39602 86201
651 64843 61095
652 22489 95716
653 6374 41756
654 38901 18033
655 64669 71954
656 24223 43842
657 78197 65345
658 10064 77081
659 25657 76628
660 46768 76536
661 100185 82728
662 25865 18020
663 36287 64324
664 16055 46654
665 28646 43934
666 9040 75010
667 73450 84674
668 1666 79234
669 57314 74640
670 19239 3731
671 66057 51459
672 53591 81845
673 24489 80478
674 11951 24732
675 3372 13780
676 68146 43106
677 37998 57032
678 14670 50722
679 5567 89167
680 30089 29868
681 21898 70607
682 44102 41218
683 6488 13016
684 42332 65482
685 84630 56257
686 89163 86370
687 6371 70941
688 28637 42974
689 29171 51655
690 29041 73835
691 59596 83762
692 10592 49381
693 36958 27965
694 3514 94659
695 8898 72704
696 13937 91480
697 33834 84606
698 20760 81688
699 19013 51126
700 8192 85611
701 5801 39125
702 10897 71815
703 20559 27675
704 1820 55028
705 40444 11848
706 14870 58239
707 36057 48967
708 37730 93004
709 4470 42751
710 21081 30080
711 9364 27325
712 12913 93423
713 10693 88811
714 42503 92115
715 14365 106141
716 38985 66604
717 48666 44555
718 4683 57644
719 2128 86073
720 10529 87067
721 27285 56552
722 72442 5790
723 5711 20125
724 17492 46493
725 31169 78014
726 85074 96324
727 17786 69746
728 71639 68176
729 -6357 77885
730 21952 56517
731 21156 72253
732 9692 42165
733 46362 64777
734 28558 51012
735 -1378 60906
736 27498 55752
737 12786 81176
738 60356 85030
739 39781 106555
740 4595 65157
741 75898 79601
742 4067 20598
743 76708 87285
744 51628 68827
745 72618 74174
746 72586 45703
747 47240 91381
748 4547 68945
749 31720 41758
750 6026 45592
751 6609 94372
752 60325 29192
753 37356 94512
754 23746 88022
755 62966 96921
756 40675 74172
757 29370 57956
758 22093 78166
759 10704 43518
760 7549 82160
761 8268 61965
762 20358 90639
763 62136 59986
764 42043 91614
765 9610 53377
766 45507 57537
767 35115 95726
768 59980 53560
769 22363 103544
770 51633 62593
771 5286 43526
772 19494 46199
773 17421 67735
774 28405 79564
775 57945 90756
776 72575 80452
777 13179 91061
778 51509 8557
779 33261 52719
780 51692 64243
781 13982 83106
782 62871 31672
783 52598 77040
784 35631 37310
785 10060 66381
786 51230 29965
787 37841 96288
788 25649 21357
789 20458 59740
790 29542 65540
791 36566 47547
792 48878 63377
793 58 85973
794 53470 57061
795 9876 28681
796 38173 96525
797 14548 73836
798 17930 47081
799 48623 59526
800 2456 66898
801 62658 75257
802 65292 85206
803 53034 75743
804 10270 90828
805 31791 66915
806 5261 46448
807 37380 86563
808 40577 83217
809 32936 89367
810 38963 54731
811 55131 59860
812 25197 42201
813 3705 3269
814 69130 96029
815 38184 80713
816 10145 77543
817 60246 90368
818 65138 104632
819 67428 77677
820 54135 17789
821 81415 90622
822 64685 39455
823 33164 13840
824 75386 84542
825 20841 22726
826 17841 79630
827 51855 84329
828 3834 107097
829 58284 34221
830 22103 32042
831 -3227 84795
832 51164 28228
833 68101 76788
834 29939 82498
835 36879 36591
836 87848 39237
837 15569 26143
838 70479 72702
839 73340 53191
840 29412 56934
841 31042 82848
842 1860 55349
843 54784 47947
844 45574 42901
845 47289 34207
846 68018 90043
847 23667 62644
848 61570 72292
849 57156 42995
850 -3250 44195
851 72981 51688
852 60958 85924
853 68654 61801
854 43227 30119
855 76517 94342
856 42674 76490
857 49779 98919
858 46596 74401
859 11973 60042
860 30854 85246
861 1176 84374
862 44542 80893
863 37972 41937
864 8944 43358
865 69290 88139
866 56075 32264
867 43743 94196
868 58653 70124
869 7472 98912
870 24545 38592
871 48177 42190
872 28779 96511
873 32103 77395
874 46465 27272
875 41092 103526
876 63257 45009
877 37533 55131
878 33167 92891
879 31886 75131
880 15556 64652
881 56656 84338
882 -2241 10042
883 45627 107415
884 40420 10116
885 85000 57807
886 19506 90279
887 15328 91666
888 58662 86870
889 32194 79998
890 89757 85180
891 6452 80006
892 33321 54904
893 6939 82579
894 87659 91973
895 45482 76891
896 50983 80661
897 60111 106329
898 16591 68427
899 6502 28407
900 23972 29351
901 69654 78280
902 23689 58413
903 32675 19324
904 33238 71851
905 63730 76216
906 9332 83987
907 52162 38377
908 59275 60002
909 23818 56862
910 9248 36899
911 41410 69735
912 59769 106760
913 43484 59895
914 26926 43544
915 14362 86435
916 33885 24687
917 20052 93244
918 30954 35812
919 24165 89872
920 28802 82898
921 76291 48145
922 54148 73508
923 32082 58216
924 56863 50826
925 18591 64997
926 2686 61625
927 67199 49187
928 20860 58101
929 89497 96472
930 37703 52638
931 56381 39008
932 64757 79508
933 83200 52055
934 28941 89142
935 47115 18845
936 35602 43759
937 12715 57123
938 68366 85582
939 18910 49533
940 289 66404
941 59392 80308
942 68843 56784
943 73946 61283
944 19854 40178
945 -8932 80293
946 56075 46086
947 29058 79468
948 50582 86750
949 8251 69247
950 16898 51501
951 21476 74001
952 86290 50611
953 48333 96518
954 1339 91193
955 32029 78216
956 7277 76668
957 18975 56988
958 20007 66352
959 5350 47518
960 64026 34810
961 34215 101545
962 45514 101968
963 71079 81669
964 3378 18576
965 59151 62398
966 18488 66451
967 305 65623
968 67014 54268
969 56194 58020
970 -4409 85382
971 12817 64338
972 27424 68297
973 14521 43934
974 10309 102107
975 43440 109798
976 63070 72054
977 37816 67527
978 81562 54736
979 56154 37607
980 90200 13700
981 50736 88051
982 21532 47992
983 622 82237
984 83514 93241
985 51416 87645
986 17295 27532
987 60270 71563
988 63250 64571
989 -306 99011
990 36630 44207
991 10841 44476
992 15948 76409
993 70979 90629
EOF
