NAME : lhk
TYPE : TSP
DIMENSION : 176
EDGE_WEIGHT_TYPE : EUC_2D
NODE_COORD_SECTION
1 80000 20000
2 70718 13407
3 69527 15122
4 66766 24217
5 74467 17423
6 61946 26643
7 32725 35019
8 62090 33051
9 47388 40131
10 51548 37336
11 53353 38155
12 85149 50156
13 85105 52193
14 77938 49452
15 71351 59502
16 74109 51994
17 70600 53793
18 68024 57259
19 71308 61779
20 76076 68470
21 74859 66762
22 72290 64724
23 54813 71055
24 57224 70988
25 56112 71421
26 53752 72031
27 57706 73970
28 56746 72105
29 48749 61772
30 55939 62655
31 52751 60688
32 48130 60127
33 40654 58967
34 52303 37775
35 44844 38659
36 36262 42191
37 36646 56114
38 30692 36829
39 15872 22474
40 11209 24134
41 11445 15820
42 12429 15573
43 20742 15833
44 29097 15269
45 33985 14380
46 32006 19122
47 32015 27020
48 26675 21551
49 11208 24134
50 11052 24248
51 10215 46459
52 14224 33976
53 15978 36886
54 17009 37159
55 22451 46936
56 32784 54923
57 31515 54540
58 28192 52316
59 11117 48511
60 15743 45932
61 14464 49216
62 15639 57338
63 14924 57007
64 9307 49278
65 22555 63388
66 10338 45130
67 12712 44277
68 30801 36018
69 30674 36961
70 17980 41278
71 31863 28146
72 49267 39037
73 51251 37081
74 51078 37037
75 51583 37964
76 54377 65461
77 52499 67430
78 39395 59817
79 40838 59458
80 46141 59513
81 47307 57754
82 39969 58710
83 28928 59574
84 29126 61442
85 29733 62141
86 41362 78955
87 53135 90235
88 51905 88147
89 44015 88776
90 44602 89740
91 47646 71841
92 51785 88157
93 49893 87608
94 29642 73720
95 49528 88337
96 54862 68735
97 42317 61874
98 42234 67000
99 43434 66548
100 32986 86046
101 40778 86943
102 40996 80033
103 41284 89901
104 28598 86897
105 34107 91351
106 33908 92642
107 47400 88506
108 41406 92475
109 26815 89130
110 9890 87599
111 10149 89730
112 21455 87388
113 26860 70433
114 28770 83359
115 25793 89171
116 9427 88767
117 21841 71389
118 9902 85933
119 9988 74130
120 8168 74474
121 8656 72512
122 8506 72415
123 41891 89918
124 17363 88430
125 18333 88649
126 9955 78610
127 9904 85709
128 9988 74130
129 11462 68746
130 22033 71375
131 10233 46264
132 13980 59741
133 29180 63166
134 27961 64313
135 11462 68746
136 29880 74705
137 29153 64759
138 20890 71457
139 27256 70556
140 32802 77781
141 9983 74835
142 21739 72507
143 18072 74640
144 20948 73532
145 41511 60466
146 32528 66524
147 55356 72846
148 55896 62301
149 69824 84617
150 57377 74876
151 77677 73528
152 84029 80649
153 86163 80815
154 81232 88186
155 65486 86459
156 70621 84863
157 67849 86285
158 69690 88737
159 53683 88954
160 63955 80037
161 70980 85702
162 72540 88012
163 72615 89161
164 49862 90143
165 53763 90253
166 53844 72104
167 54049 72687
168 59257 76352
169 52013 88139
170 72320 68323
171 71538 67585
172 75470 51667
173 86495 40282
174 86425 33273
175 84631 17825
176 85915 17250
EOF
