NAME : lhk
TYPE : TSP
DIMENSION : 993
EDGE_WEIGHT_TYPE : EUC_2D
NODE_COORD_SECTION
1 80000 20000
2 8802 79001
3 27842 89275
4 5321 64357
5 -1344 19813
6 50725 89495
7 55794 26928
8 26398 32393
9 19504 12174
10 50563 84639
11 15781 49307
12 23385 49851
13 53687 87265
14 10835 86687
15 2459 71819
16 24907 94531
17 24444 76814
18 17328 91328
19 62124 77094
20 41277 37665
21 37323 99376
22 34226 67538
23 39159 81842
24 54834 93955
25 65765 21668
26 94057 84863
27 35561 22964
28 64749 28419
29 35987 97844
30 80465 34287
31 36848 58980
32 4191 90403
33 18806 40187
34 87418 37865
35 15178 66075
36 49166 62967
37 18483 99979
38 27124 47864
39 26014 46297
40 -5238 93905
41 48813 85852
42 22062 83242
43 66776 104386
44 60522 30631
45 23639 94469
46 61123 35031
47 6045 32806
48 5454 51393
49 5865 90449
50 31055 55649
51 19494 87527
52 69734 74779
53 75854 89206
54 39677 96197
55 43372 58219
56 53848 37317
57 37416 66711
58 -2028 52531
59 12037 81030
60 17876 62065
61 30916 68509
62 -3511 13098
63 51510 96975
64 55404 45478
65 27676 20396
66 25559 30932
67 57049 41765
68 66920 68488
69 66316 62933
70 52156 39852
71 64372 52018
72 74833 83293
73 33577 99594
74 27897 84786
75 2762 28727
76 -5001 83986
77 27820 93152
78 59 63107
79 21660 35145
80 24435 59791
81 39803 68386
82 13886 67907
83 44738 80880
84 77995 74997
85 52244 67224
86 57361 53775
87 1818 32343
88 18705 29959
89 14288 83530
90 32151 51964
91 11202 85923
92 54977 73156
93 25623 98629
94 23866 88222
95 52270 74655
96 9632 91817
97 40758 96863
98 14096 68683
99 93647 30750
100 12920 74254
101 8618 52360
102 44203 62736
103 63614 52544
104 65287 -6400
105 34069 53765
106 46834 99664
107 692 99248
108 94636 55155
109 -1398 84915
110 57957 70509
111 64828 64558
112 32589 24078
113 66372 72983
114 27730 74218
115 17275 58991
116 23740 101665
117 1852 59792
118 66433 54821
119 49503 85754
120 5353 70356
121 20173 96327
122 24263 32218
123 276 55467
124 19783 49535
125 40266 79714
126 15712 38863
127 50982 81913
128 33463 49474
129 10304 45526
130 43588 86952
131 13609 75012
132 11044 67399
133 21614 62053
134 12247 28268
135 44483 65716
136 76201 96190
137 85950 51645
138 32075 62781
139 14412 86435
140 45581 97855
141 52311 75027
142 29864 81080
143 14586 59814
144 56328 52032
145 48431 82956
146 72667 84597
147 24795 95129
148 26465 49742
149 13991 47287
150 73057 91382
151 37728 99819
152 36207 36893
153 80201 71875
154 -1258 88572
155 11890 43025
156 33099 49287
157 41373 95551
158 960 55696
159 70626 93557
160 81341 89740
161 31391 35310
162 52405 62191
163 18023 66824
164 40787 68849
165 55626 34196
166 38022 86826
167 3173 54866
168 26354 88245
169 19393 80806
170 13430 83446
171 90423 55756
172 35890 68475
173 36075 91243
174 51708 71531
175 11577 47419
176 30445 57201
177 62983 22678
178 64286 94263
179 3408 81093
180 53396 85205
181 45153 45875
182 35520 99895
183 15126 58252
184 17237 94355
185 16224 80227
186 68466 97988
187 54711 55800
188 3113 12993
189 54133 55480
190 34745 78879
191 65785 55861
192 37309 27310
193 4546 59566
194 50540 73933
195 43979 48726
196 76968 47592
197 6643 66764
198 48268 39195
199 78138 63022
200 6259 91490
201 8886 97314
202 69170 56091
203 58091 92687
204 993 85486
205 91570 70902
206 31316 32513
207 46704 86803
208 6808 63230
209 56052 62577
210 42133 20809
211 40984 41701
212 12684 12742
213 2475 37835
214 -9073 94052
215 2951 49362
216 41942 89029
217 55893 71476
218 57496 41605
219 9102 48321
220 -1043 71251
221 13814 68122
222 21711 32598
223 9580 46211
224 31832 80637
225 -5365 76764
226 40873 70715
227 37194 72275
228 20830 91864
229 11282 36103
230 62255 74653
231 27853 96409
232 33084 90384
233 73364 34803
234 21889 58133
235 3421 56396
236 45847 70133
237 7559 99953
238 42397 59606
239 63249 56246
240 48576 100467
241 8247 83941
242 46755 91419
243 86572 55821
244 95058 14575
245 19495 88089
246 57929 83397
247 27530 19061
248 10751 88802
249 44085 74451
250 22407 84446
251 42508 32520
252 66334 89106
253 34255 75982
254 25818 84388
255 21894 21969
256 -2555 65061
257 36026 81047
258 48304 32864
259 11965 17192
260 53939 86594
261 87246 7198
262 29140 18641
263 57183 48357
264 2489 88068
265 49330 62942
266 38628 98014
267 18308 63181
268 31435 62203
269 13711 22634
270 28841 53992
271 39871 79857
272 35854 99902
273 18582 64713
274 63625 97688
275 76527 42177
276 19869 74921
277 39575 43793
278 7263 65201
279 27886 30163
280 26015 53086
281 55179 73496
282 50657 59413
283 44945 69393
284 12989 36067
285 25546 20442
286 66868 84346
287 56154 57646
288 39445 13132
289 20538 91936
290 42117 27565
291 73522 70569
292 38543 70664
293 35974 82671
294 54196 53968
295 43614 75173
296 66166 20368
297 24576 73018
298 64224 86806
299 8319 65182
300 135 22795
301 12003 84302
302 12018 90004
303 29903 49614
304 9686 56098
305 10711 92226
306 55164 89285
307 24488 97398
308 22096 30148
309 36962 74613
310 48086 86666
311 38344 10759
312 96343 70241
313 5665 43148
314 53844 100358
315 54424 37476
316 59305 82771
317 11594 88295
318 61956 83081
319 68383 88711
320 51861 82451
321 36701 88784
322 6091 79265
323 85617 89144
324 68168 42289
325 19347 57085
326 11882 82710
327 12732 70126
328 28876 63893
329 57 39481
330 18130 57456
331 835 36632
332 9423 28659
333 85416 76430
334 25347 78633
335 75304 70183
336 60550 78487
337 15393 55020
338 28890 18485
339 9531 65895
340 14779 70261
341 59183 67129
342 2300 40545
343 49000 54459
344 47128 89519
345 53412 91685
346 97571 25575
347 19279 68329
348 7495 54614
349 22929 17054
350 34679 58864
351 39631 74543
352 32725 15055
353 2213 44422
354 71542 94635
355 34783 32086
356 58726 37119
357 38909 41041
358 63397 44818
359 56692 37788
360 27190 71088
361 11451 84813
362 21385 77069
363 13934 23033
364 36607 12626
365 3721 92395
366 36907 64710
367 22431 6612
368 48753 90517
369 29824 82039
370 55335 86313
371 37386 67174
372 -7203 70069
373 96042 72657
374 6879 44254
375 13480 67639
376 50016 93992
377 11005 64176
378 48543 31379
379 62609 83117
380 34905 39200
381 1665 103637
382 2815 67009
383 25586 59945
384 70460 61521
385 10766 36699
386 76584 78771
387 22803 86303
388 79482 54920
389 28025 42669
390 34677 101010
391 30124 66348
392 30177 47950
393 45864 90576
394 62992 67596
395 49179 87208
396 63116 88468
397 51108 63186
398 22877 51114
399 18430 62718
400 12937 86280
401 9700 81975
402 785 88587
403 4820 28322
404 22026 46969
405 37329 69709
406 16019 92741
407 55690 77649
408 38288 20575
409 47762 88256
410 25790 100755
411 46708 61366
412 24867 66064
413 7779 14709
414 29773 41446
415 21571 48207
416 51964 89231
417 31923 92323
418 65100 84077
419 19298 83088
420 50791 24507
421 70055 60783
422 49617 39642
423 20899 58747
424 13458 44083
425 22266 74106
426 74226 39745
427 3541 82334
428 12239 74417
429 24396 78122
430 19957 82217
431 27962 88286
432 18285 84680
433 60403 62768
434 12456 87806
435 58815 96168
436 -1077 106283
437 11341 80997
438 38028 84531
439 22329 40868
440 19822 18722
441 61010 66060
442 22337 95781
443 15830 84059
444 25388 74132
445 4910 90336
446 -120 60590
447 6328 86601
448 5885 91349
449 37660 96503
450 37715 103779
451 92034 72015
452 21728 60163
453 38654 38249
454 52525 69545
455 23432 71886
456 13740 30161
457 32021 102956
458 14985 75496
459 60179 40494
460 41504 57045
461 51810 69757
462 31154 54447
463 12352 93927
464 10767 55731
465 63746 85845
466 74215 73539
467 73533 42702
468 43501 29099
469 46124 68646
470 15350 78417
471 33930 89923
472 42103 58640
473 49988 40648
474 93591 88023
475 24438 22182
476 30837 49199
477 23834 50609
478 64894 91300
479 68725 63434
480 9471 74389
481 39779 41678
482 69232 79746
483 12933 56461
484 94479 1198
485 52880 61020
486 57461 45479
487 25409 39320
488 16926 78009
489 24731 5528
490 -1043 47763
491 23500 77562
492 18149 88672
493 60210 48777
494 44206 61680
495 67614 93454
496 19891 79257
497 23548 46482
498 95149 56897
499 59716 56126
500 -6264 32560
501 20993 66911
502 33711 65980
503 9666 65959
504 10569 73754
505 62785 16514
506 12698 51018
507 88411 65364
508 18641 55176
509 30022 41611
510 64125 71442
511 31986 60063
512 54764 90631
513 49050 40866
514 54741 72571
515 259 40556
516 59110 62529
517 50330 93150
518 4088 73488
519 43074 10440
520 52028 59939
521 80320 38177
522 23524 99085
523 39416 48362
524 37784 75320
525 13454 59772
526 33716 51791
527 27050 69749
528 3192 55481
529 82656 66465
530 36966 26459
531 44158 82906
532 6307 50386
533 38388 92750
534 44828 66380
535 17490 44494
536 34898 41030
537 47476 88731
538 24455 85429
539 59984 66200
540 43843 90311
541 41944 73639
542 48390 98999
543 18691 59096
544 18460 45829
545 79382 92327
546 19250 63688
547 13681 86121
548 7089 85178
549 36093 89646
550 30087 33910
551 14541 80977
552 14423 79168
553 24375 61657
554 65141 59849
555 -1443 73891
556 56645 26037
557 2522 72697
558 22491 89297
559 47697 52412
560 40944 96995
561 19990 71381
562 48410 85319
563 47255 80678
564 47110 77805
565 47787 88458
566 13973 53232
567 38509 40308
568 60182 85187
569 16615 85825
570 34169 95469
571 5657 79902
572 29434 65495
573 6003 28631
574 43146 22573
575 30334 79602
576 69897 85285
577 51688 58487
578 50835 62708
579 30584 84920
580 72323 80962
581 83361 99546
582 57545 19815
583 58700 68515
584 72909 55930
585 46576 95008
586 2789 89387
587 41945 30623
588 31561 61776
589 17585 7775
590 10299 59741
591 90997 41763
592 25424 70086
593 72770 55158
594 15796 100110
595 55462 41993
596 70396 68249
597 36469 62786
598 46565 59403
599 67317 20353
600 26419 62771
601 32090 76016
602 16710 59393
603 17236 24020
604 35027 49533
605 23892 67895
606 56366 65879
607 61652 43557
608 -229 69773
609 15321 71756
610 69245 44471
611 23236 88292
612 22538 100358
613 28409 32028
614 30982 87572
615 41343 66794
616 5312 86559
617 14603 45007
618 59518 62518
619 60540 90514
620 33436 47612
621 75818 101478
622 39364 49584
623 78381 87548
624 52440 48462
625 44919 98753
626 55369 61937
627 31064 23585
628 105921 12361
629 813 84854
630 17052 14152
631 18510 77736
632 23193 105696
633 44643 66158
634 23895 50890
635 57567 38160
636 17746 72249
637 49352 82981
638 9625 78447
639 28775 96811
640 -1260 67073
641 24393 56556
642 10562 23015
643 43319 74132
644 24059 10804
645 63496 45993
646 25893 63688
647 -312 7198
648 56616 63107
649 84109 91501
650 38950 80435
651 73501 63848
652 18257 90694
653 8027 41318
654 42043 26140
655 60649 69425
656 18939 34404
657 67489 51907
658 5689 77733
659 19146 67898
660 48627 72325
661 97725 71509
662 15943 24248
663 31108 75844
664 23992 43113
665 25373 31961
666 8383 71483
667 84695 92136
668 -467 72037
669 59212 57608
670 26863 10214
671 74212 46570
672 55964 77830
673 38196 97017
674 11731 20165
675 7474 11094
676 68236 43196
677 41722 64574
678 5761 62027
679 3259 92655
680 32828 48291
681 11319 62787
682 62900 38305
683 5687 15141
684 49003 63481
685 95237 62474
686 94537 76023
687 4198 71253
688 30691 39411
689 31512 60431
690 32908 78868
691 58479 90517
692 13750 67027
693 41438 39942
694 416 98980
695 -814 68242
696 19700 87408
697 17597 89543
698 33678 78078
699 15521 51014
700 13304 85727
701 10858 37096
702 27174 80457
703 25435 16367
704 -1229 61260
705 31824 9732
706 26454 60399
707 33319 49611
708 31545 97021
709 722 48290
710 25721 35194
711 7202 24140
712 4224 94298
713 16280 91223
714 50444 91372
715 22447 100244
716 39990 65083
717 50778 31994
718 2387 67114
719 2892 90961
720 1647 86188
721 29646 60780
722 68940 3016
723 6933 2409
724 23734 43602
725 37759 74891
726 82488 88307
727 22004 71604
728 76948 69478
729 10539 81468
730 31767 61859
731 30117 83940
732 14279 47992
733 46798 61985
734 26328 59858
735 5343 66751
736 23998 60896
737 4803 86955
738 53343 83878
739 45707 96213
740 16401 66383
741 82048 81411
742 2332 24269
743 77473 77319
744 58143 61250
745 70879 76343
746 76806 36267
747 47671 94745
748 17849 68374
749 23719 48362
750 -2945 49436
751 6794 107746
752 57539 28846
753 30659 98919
754 17972 95320
755 61288 86582
756 43280 82179
757 22789 66556
758 25012 78996
759 17427 50212
760 8208 75289
761 12641 71202
762 27020 93908
763 59696 63476
764 46095 100200
765 15435 60173
766 40019 63741
767 33323 94603
768 59650 57778
769 25152 106212
770 47877 69835
771 12159 45699
772 12334 53797
773 17050 61898
774 25588 85259
775 47581 97425
776 72762 90230
777 19528 99076
778 61474 13934
779 35848 60199
780 48946 63471
781 3225 84256
782 58923 31493
783 57488 69405
784 39798 53938
785 10109 62178
786 47387 32273
787 30135 94174
788 31185 32784
789 36905 59848
790 19625 65787
791 37148 30847
792 54681 61187
793 5313 84223
794 55538 47190
795 -1338 28313
796 27869 87782
797 19158 71774
798 13112 49441
799 48424 58944
800 11706 66231
801 49793 72085
802 71266 77499
803 49068 77094
804 5642 89233
805 39203 55175
806 10051 56033
807 39208 74281
808 40784 90492
809 32517 95235
810 33940 68568
811 53261 58849
812 32178 40257
813 369 6436
814 75343 80498
815 50645 88421
816 9475 87897
817 58356 78654
818 65215 100528
819 66561 84980
820 71811 20416
821 90038 100894
822 62366 33846
823 38407 24341
824 65669 88417
825 31555 25680
826 10809 70681
827 38547 74176
828 -1078 104367
829 54299 36234
830 22916 33484
831 -900 88828
832 58991 27016
833 59801 67784
834 28704 86940
835 35198 27002
836 81472 35298
837 18434 26843
838 73279 71318
839 81313 60859
840 35849 57595
841 35161 79396
842 3032 49950
843 56153 54248
844 48018 53517
845 44709 45548
846 72315 89040
847 19453 59321
848 56542 80791
849 45637 46266
850 1796 61968
851 63855 59194
852 64093 91245
853 78156 61303
854 33002 31141
855 63440 86593
856 50410 61667
857 51897 103551
858 53564 82991
859 22233 43445
860 25625 89326
861 13873 85969
862 53878 84856
863 42269 44196
864 5620 42335
865 74311 81012
866 55380 29029
867 43333 97567
868 74393 71544
869 3264 94666
870 17142 34233
871 54192 39273
872 20177 95454
873 28418 79520
874 49349 23984
875 45449 103859
876 46574 40673
877 40129 49648
878 34406 81689
879 34714 75761
880 9749 69353
881 60057 89115
882 4177 7215
883 41359 98311
884 36392 19127
885 88569 53707
886 20889 87171
887 16767 86891
888 58831 88397
889 26409 80330
890 96402 96290
891 -1357 79281
892 33955 54188
893 6205 85735
894 70900 101368
895 41808 69528
896 58375 81174
897 46587 98466
898 21249 69020
899 -7011 26789
900 24109 20981
901 77424 64066
902 27761 67729
903 21415 16987
904 24680 63238
905 66184 72594
906 8680 80305
907 51625 38786
908 62274 57480
909 25952 45033
910 4858 44073
911 43029 79214
912 56914 104931
913 33338 51918
914 23328 53693
915 -4527 88869
916 31528 24353
917 20193 92718
918 38522 36931
919 30951 88702
920 34359 80510
921 82664 59554
922 46862 79067
923 47025 53704
924 50004 53984
925 20890 76583
926 -6352 60520
927 70974 58163
928 23358 72139
929 90543 98220
930 34149 57392
931 54536 29392
932 61918 80093
933 78977 52180
934 23744 104689
935 45953 21832
936 46206 34436
937 7815 50252
938 67582 91253
939 16205 48075
940 1213 65433
941 48473 77099
942 76244 65623
943 63459 67913
944 17285 35837
945 842 81905
946 52641 50044
947 21031 72216
948 52509 90876
949 9322 71458
950 18698 45559
951 20588 73388
952 83412 50434
953 41846 94852
954 -502 86761
955 36300 75670
956 4134 79513
957 19010 54548
958 29550 52516
959 -2793 39132
960 57270 20344
961 23252 107724
962 58982 100448
963 71103 73567
964 5876 16873
965 54400 72526
966 26200 56356
967 -3982 76808
968 77724 51693
969 56880 70877
970 3570 99154
971 1083 62977
972 26253 68616
973 8958 52087
974 9536 102114
975 34240 99512
976 73083 80840
977 43898 66419
978 81167 57854
979 62075 42593
980 77271 15657
981 54894 95129
982 20344 58785
983 6336 83530
984 72213 105415
985 58228 83047
986 6990 41905
987 45696 68168
988 59128 73018
989 -3760 94744
990 38696 43666
991 14020 31039
992 1910 84930
993 54352 98108
EOF
