NAME : lhk
TYPE : TSP
DIMENSION : 993
EDGE_WEIGHT_TYPE : EUC_2D
NODE_COORD_SECTION
1 80000 20000
2 9070 86190
3 33523 93742
4 11167 59932
5 3385 27336
6 54038 95086
7 58789 25705
8 41936 43226
9 14055 3244
10 56839 78159
11 2607 38524
12 35266 50056
13 58464 78287
14 18372 90476
15 1477 72404
16 13157 88033
17 36768 84492
18 16764 91351
19 56859 84462
20 50988 31163
21 28698 99358
22 23741 74270
23 47418 94495
24 50633 108172
25 58143 15238
26 90449 84218
27 41143 18556
28 49993 38210
29 34863 103099
30 65416 44633
31 36329 59573
32 14788 83465
33 22325 40433
34 92078 40320
35 23769 68057
36 52731 57809
37 26584 93918
38 29307 39179
39 23516 39928
40 9566 103499
41 57677 86287
42 29489 85024
43 64334 89370
44 56555 43035
45 26575 82424
46 66969 37916
47 2063 41297
48 11164 44345
49 12892 85465
50 40283 54864
51 25213 84455
52 76430 79520
53 66510 86091
54 34658 98176
55 40863 62247
56 55176 34296
57 27510 64818
58 15785 46197
59 23074 87647
60 16725 61815
61 35851 70634
62 -3904 24587
63 57466 96508
64 41148 40747
65 24758 19231
66 26955 33407
67 51216 35836
68 60690 68713
69 63525 62470
70 46779 54300
71 61228 49946
72 75458 75099
73 36158 83288
74 22369 86620
75 -5281 21347
76 -924 75608
77 25553 75374
78 2304 64766
79 24283 51823
80 25912 65241
81 44033 71948
82 18361 63136
83 43378 76506
84 80214 81023
85 65295 62989
86 65284 61928
87 1158 28175
88 10762 35230
89 7159 81916
90 36041 58306
91 3190 82884
92 48872 82497
93 41515 82588
94 12565 86210
95 52274 84774
96 12616 79436
97 29774 92458
98 12989 80277
99 91455 19353
100 22597 68587
101 313 58888
102 54191 55428
103 68924 60537
104 58735 -5876
105 38716 73297
106 42211 95497
107 5452 96048
108 87967 53210
109 14265 83761
110 55221 70635
111 70744 68198
112 34567 24663
113 53719 75314
114 24149 64652
115 12448 63310
116 15187 99318
117 -34 50057
118 65385 47648
119 64568 95419
120 6764 71010
121 31798 91231
122 23514 29418
123 -3585 54957
124 11384 41853
125 25733 84030
126 18766 36337
127 44536 73248
128 43233 51942
129 -1593 49425
130 40026 91494
131 15140 61922
132 9328 64040
133 16583 77564
134 3932 22134
135 42973 69826
136 77874 111665
137 82178 50310
138 33225 63794
139 20153 97590
140 32569 102298
141 47540 83876
142 32053 87124
143 14936 52620
144 64944 51693
145 42809 62525
146 70252 86922
147 43384 86283
148 32935 51647
149 17485 40338
150 69652 98313
151 29972 91761
152 35729 50012
153 67020 65840
154 9291 90629
155 3591 54090
156 46216 50139
157 54595 89812
158 3445 55427
159 72721 92314
160 74036 87003
161 35772 35150
162 56494 60965
163 14417 64632
164 41831 70444
165 43709 29675
166 39005 86687
167 7479 58396
168 35461 78978
169 20489 76956
170 6562 88259
171 96814 57476
172 33130 67504
173 42454 80037
174 58531 76246
175 5685 45063
176 30880 56736
177 69463 16759
178 56705 90033
179 12259 83390
180 43764 75069
181 41421 48077
182 33530 101276
183 8094 41586
184 23084 88267
185 26188 73461
186 52246 97785
187 51583 61821
188 1269 18013
189 53602 56142
190 41834 75973
191 55510 56454
192 39536 39298
193 5619 61353
194 43181 81977
195 31255 46119
196 78199 43414
197 20951 56499
198 44897 40687
199 92252 53150
200 12642 89939
201 8464 96646
202 74706 59362
203 53460 97701
204 14309 83775
205 83548 74655
206 23500 40996
207 51153 97258
208 -5507 67330
209 65398 63126
210 57341 24128
211 43505 50672
212 13516 14595
213 15122 43298
214 2888 87730
215 1606 55174
216 44635 86065
217 52312 69068
218 52963 53385
219 -1543 52018
220 13939 73414
221 22573 75060
222 28315 24686
223 9911 47621
224 31911 78673
225 102 63726
226 39911 74446
227 28995 70419
228 24004 94525
229 22129 46713
230 53072 79365
231 35819 93530
232 39992 91572
233 68851 47786
234 32636 53798
235 3637 59054
236 39476 62083
237 10817 101208
238 39477 62229
239 71898 65698
240 50135 90357
241 9663 83377
242 37502 88485
243 78479 50260
244 92891 11091
245 14416 87711
246 47575 89480
247 23589 15693
248 1576 86461
249 46060 79523
250 15874 94060
251 57987 31540
252 69470 85517
253 33444 68899
254 22945 80363
255 24776 17650
256 -2484 58561
257 43780 86953
258 43546 34975
259 4440 23775
260 56626 84760
261 80522 4249
262 49470 26839
263 50536 57116
264 8628 90675
265 53421 60692
266 29212 100286
267 19358 77752
268 25145 61103
269 6044 21349
270 31574 46126
271 44652 71579
272 34490 92128
273 20211 71403
274 54857 86532
275 82059 31095
276 28890 61883
277 56766 43991
278 -494 72514
279 22926 37138
280 13405 48607
281 56146 90041
282 43143 58681
283 52065 59744
284 -1384 34175
285 35775 19576
286 64846 95169
287 53389 50624
288 36102 15545
289 11877 95942
290 55112 22079
291 65708 68270
292 27655 70233
293 32870 82824
294 57942 58202
295 50146 70253
296 64491 22725
297 30709 80079
298 66719 80775
299 -17 73711
300 6120 31214
301 2514 80892
302 4313 84968
303 41932 49375
304 13926 45149
305 8375 81348
306 40936 91094
307 19689 104364
308 27888 25640
309 40184 57234
310 36297 83045
311 37061 28034
312 91142 74147
313 7077 44321
314 49641 100188
315 61565 36639
316 53361 78517
317 20978 82761
318 67987 80243
319 69891 98623
320 48647 83854
321 58081 84602
322 9672 80966
323 83889 88358
324 62352 40747
325 20530 59014
326 -285 85295
327 16217 87536
328 29118 72158
329 -2008 41044
330 22127 71532
331 2440 34373
332 6318 24076
333 86970 76667
334 31509 82490
335 75242 60632
336 56649 86693
337 16388 55566
338 40715 19516
339 15854 76708
340 27342 84410
341 61045 61414
342 5326 46315
343 46172 48964
344 52695 82664
345 59051 99809
346 89762 9830
347 9362 64747
348 -9943 65026
349 13782 20651
350 33729 59516
351 40569 75082
352 35666 2380
353 5284 53374
354 76015 101720
355 26135 32626
356 60418 40272
357 31738 38712
358 64011 43447
359 61406 37539
360 22715 59792
361 14482 87620
362 13956 75114
363 4083 18454
364 26690 20146
365 13534 94768
366 41318 67338
367 24278 14462
368 59535 91728
369 16296 95694
370 61506 75654
371 46293 49539
372 -658 63077
373 99810 87557
374 958 40786
375 11266 82943
376 37454 104233
377 9846 73232
378 59794 36654
379 52550 76906
380 29291 17855
381 14466 101985
382 1963 63283
383 23572 67368
384 80514 77266
385 16522 42407
386 81183 67336
387 4077 90606
388 73693 50187
389 18993 35598
390 51766 93107
391 26345 64105
392 21176 49776
393 27018 88244
394 63554 67039
395 42844 93344
396 63651 86797
397 64843 50517
398 20914 42301
399 17451 58721
400 12720 91345
401 6786 64754
402 2831 90383
403 7368 24002
404 23013 46732
405 37099 74223
406 8647 92166
407 44537 76249
408 40150 21110
409 51876 86434
410 22651 95503
411 40741 69178
412 21295 65717
413 8312 16441
414 20519 47097
415 29076 46144
416 61536 85217
417 40257 88124
418 69547 85328
419 27169 81267
420 48030 19728
421 69497 60514
422 47537 42439
423 20577 56250
424 2789 42706
425 30818 85640
426 69720 44724
427 12279 78057
428 8855 71736
429 38330 93749
430 13140 72183
431 26210 110193
432 18828 78388
433 57723 74596
434 706 81712
435 48878 89283
436 12234 104184
437 14347 75797
438 49872 91769
439 22232 53161
440 23958 20152
441 59138 68230
442 18101 95225
443 15890 92709
444 20270 76990
445 6290 85813
446 1351 71317
447 14756 88361
448 15754 95447
449 37368 93766
450 41405 94617
451 81705 68844
452 23942 55751
453 38617 52393
454 47516 60913
455 27453 74718
456 -2230 31628
457 15539 97074
458 3909 85788
459 53977 30779
460 39369 69845
461 56142 74067
462 43048 54564
463 13755 98162
464 19951 45560
465 68457 102159
466 68708 89918
467 71682 41763
468 38199 31540
469 46718 72214
470 15855 83914
471 34493 93838
472 41765 57821
473 49501 45628
474 87801 81988
475 14913 11823
476 21342 53321
477 18123 45510
478 72836 85578
479 66640 56918
480 17571 72331
481 36239 48912
482 59766 75943
483 14989 66100
484 97108 14527
485 46805 68348
486 56107 58457
487 25200 37841
488 20839 84631
489 13605 11535
490 11553 50300
491 18999 86147
492 14739 99545
493 60646 43667
494 32347 60283
495 83084 97149
496 9593 86393
497 21133 43284
498 95553 58744
499 48377 56370
500 -5032 37591
501 10240 70248
502 29119 67620
503 6700 68104
504 10816 71046
505 66524 24899
506 11335 49435
507 82355 56835
508 26157 68091
509 38362 38571
510 69731 72951
511 30029 53491
512 53561 99022
513 49031 41519
514 58647 74575
515 3307 24135
516 58941 62162
517 52907 101714
518 -25 68498
519 42128 12227
520 54314 63233
521 79532 40463
522 21305 103372
523 30019 50751
524 48232 65697
525 8305 61904
526 31365 42610
527 14361 69417
528 2981 55659
529 89187 64343
530 20531 33400
531 43851 89445
532 -1503 69148
533 49542 102528
534 35677 59780
535 11794 40461
536 25556 44277
537 55054 98827
538 17279 75240
539 61828 57405
540 48645 98200
541 45670 81271
542 42893 98892
543 14157 49266
544 26847 44633
545 66237 94877
546 26106 53507
547 -2006 86272
548 4188 76688
549 41406 92645
550 22996 35371
551 16706 80299
552 14095 78971
553 17410 67936
554 74837 58880
555 -3116 80556
556 55298 31773
557 11398 78519
558 16816 91092
559 50082 73571
560 40371 95067
561 21977 86710
562 32564 79077
563 48306 74946
564 41471 69316
565 36741 87757
566 23735 54887
567 37426 40231
568 53287 85211
569 -1495 89738
570 39622 97589
571 4021 80685
572 31107 65777
573 7695 25779
574 28829 11177
575 25400 78261
576 55547 82613
577 35953 71351
578 51018 55210
579 18400 77777
580 77112 69836
581 71574 102305
582 60814 15155
583 55559 65864
584 70645 45147
585 60832 102146
586 -4758 100965
587 41671 28146
588 27083 66808
589 10075 20965
590 11584 60404
591 85582 34183
592 38925 66672
593 72627 54583
594 10188 100533
595 60571 32087
596 63168 67104
597 33729 67230
598 45695 67983
599 73328 21601
600 16268 64817
601 23701 75319
602 21255 64920
603 22396 35731
604 38396 50104
605 29620 78847
606 69127 73433
607 72857 41802
608 3389 70657
609 21521 81504
610 73933 42467
611 27526 96707
612 22683 98327
613 27622 28610
614 34730 95692
615 41108 72940
616 5933 73810
617 9680 31523
618 56813 62204
619 43741 88830
620 41626 45329
621 74027 90610
622 45535 57162
623 62927 85537
624 59703 45488
625 54672 100753
626 47029 67999
627 27608 22182
628 93600 16224
629 4469 83540
630 12382 3437
631 17277 68013
632 26783 99295
633 50415 63308
634 27579 49499
635 60219 35126
636 20718 76434
637 49331 82209
638 -946 93248
639 28342 79017
640 756 71136
641 29941 57272
642 25774 30352
643 48378 88972
644 17528 18944
645 57376 51640
646 32274 74779
647 7960 22774
648 60875 59500
649 75884 83945
650 42735 87101
651 77404 58672
652 19421 89806
653 12078 49935
654 46046 17637
655 71136 70262
656 20767 47445
657 71381 57524
658 7463 75272
659 23485 74281
660 45995 82451
661 88765 74714
662 15360 20968
663 33316 75982
664 20907 37099
665 36380 35703
666 3013 66144
667 79073 96882
668 3791 69562
669 60649 66340
670 28893 4464
671 70219 44727
672 59648 76098
673 37537 91886
674 19467 18020
675 5406 8827
676 58228 50526
677 37748 56434
678 11568 61317
679 1561 91810
680 37568 35821
681 12769 61861
682 52839 26654
683 1856 11774
684 42899 65771
685 86637 60987
686 93063 93202
687 -5314 72264
688 32939 38487
689 29817 51540
690 31602 75087
691 58466 93376
692 15896 55353
693 41544 46357
694 7268 83325
695 -176 73082
696 17992 86210
697 24843 103438
698 26371 81454
699 16202 51520
700 8717 87853
701 22976 36166
702 14731 83447
703 24869 15016
704 7240 58415
705 24875 13838
706 21461 60202
707 42024 43352
708 38247 93120
709 5070 50783
710 28552 24702
711 7092 29967
712 10410 95210
713 17506 92928
714 48311 94881
715 31469 103571
716 45389 70728
717 47746 43156
718 15354 66194
719 2307 93039
720 11205 78522
721 34064 70517
722 66195 17029
723 -1328 7656
724 23175 43724
725 43989 74792
726 79989 90542
727 14944 65793
728 77013 66787
729 7579 76692
730 20993 63523
731 37170 76455
732 15504 46379
733 47755 63345
734 21310 60621
735 10318 61207
736 13034 61785
737 2235 90612
738 55124 103681
739 31626 103152
740 12947 76114
741 85899 71530
742 10669 20442
743 82608 95297
744 49800 56580
745 59503 79017
746 76367 39074
747 48278 96166
748 16217 61904
749 28917 48606
750 6303 43027
751 6993 92418
752 53675 31806
753 38186 98004
754 11711 89969
755 50963 99648
756 48194 77497
757 27683 54108
758 27934 80746
759 19843 49792
760 1403 83013
761 8446 58868
762 18165 90047
763 58648 62374
764 48133 99566
765 18779 53053
766 33010 65979
767 34077 97519
768 72276 64139
769 17331 99284
770 61085 77938
771 16475 39141
772 11178 45053
773 18649 60060
774 39043 80447
775 51589 91395
776 75501 79849
777 21797 102597
778 68878 9959
779 35354 47979
780 39533 72606
781 16981 86141
782 60889 34577
783 46292 75804
784 34751 43480
785 7534 65060
786 48179 27451
787 22914 90728
788 32901 26694
789 22854 56963
790 25966 75677
791 39246 43329
792 52587 65492
793 432 83875
794 44733 51272
795 -2801 18987
796 34297 84971
797 17373 84987
798 19200 49499
799 49378 58581
800 3266 70500
801 55652 76223
802 64640 82055
803 59118 72222
804 7221 86588
805 40596 51920
806 7485 48833
807 34984 82093
808 49970 86570
809 20363 98489
810 39424 67539
811 46707 65336
812 33656 37854
813 5620 9442
814 73157 84921
815 47446 84400
816 2719 95541
817 64366 92061
818 69425 99951
819 75225 73855
820 68206 29853
821 84296 94178
822 57673 24640
823 35293 28255
824 65620 93895
825 34226 33676
826 14095 66589
827 49912 78602
828 7658 97010
829 58519 33983
830 26802 40886
831 1387 80653
832 58913 29424
833 58542 72200
834 13622 87953
835 42580 30294
836 86464 37333
837 19322 28165
838 67371 76931
839 84339 46762
840 33717 57874
841 41828 83436
842 10843 50497
843 57485 48842
844 44463 39826
845 55753 39490
846 63285 88342
847 15418 61351
848 58475 82736
849 45721 44514
850 -439 54497
851 71966 55457
852 51847 86274
853 83043 58669
854 41572 40768
855 67716 103953
856 44967 77141
857 63058 97129
858 53109 74731
859 13985 51593
860 23180 88201
861 3062 79636
862 50645 82527
863 46443 45615
864 10870 51499
865 77154 88462
866 46525 29771
867 40243 103223
868 60713 71460
869 4767 97185
870 33872 37541
871 52055 42517
872 27008 91087
873 31527 71230
874 55507 34941
875 45204 96988
876 61977 48204
877 32815 49075
878 39889 86708
879 37114 67701
880 17353 58672
881 48837 74027
882 12916 15810
883 54003 97264
884 25104 23566
885 88587 53173
886 23796 87791
887 14512 80601
888 55761 85247
889 22494 71149
890 90706 91158
891 3727 75933
892 29748 48602
893 11352 86120
894 78409 92657
895 45106 70837
896 46808 77891
897 58663 98712
898 20917 60388
899 1742 28500
900 16278 27091
901 73946 60312
902 37947 59559
903 22697 30380
904 34892 62360
905 61060 72599
906 4792 80896
907 44752 35721
908 58295 55063
909 15683 53256
910 14340 46342
911 44835 71621
912 55014 97389
913 32176 51332
914 33734 46934
915 11948 96467
916 19806 23663
917 13978 82715
918 43104 34182
919 40770 86367
920 34222 92905
921 82419 51659
922 43837 76193
923 36371 55611
924 57553 48402
925 29138 73211
926 4368 58043
927 72170 59798
928 25226 69629
929 87166 99408
930 34141 59670
931 54071 38519
932 66576 83612
933 77512 41407
934 28538 96078
935 43906 28028
936 45215 35688
937 15252 46514
938 69005 81978
939 20078 53684
940 -699 67276
941 51904 91970
942 69077 67990
943 77698 59011
944 19236 25287
945 3370 81815
946 47286 53760
947 17234 73805
948 51582 86186
949 15179 67737
950 18383 45654
951 24507 67057
952 82555 57611
953 57647 90933
954 2552 93131
955 28697 79393
956 3115 71252
957 21668 52937
958 26190 60124
959 6365 41846
960 69091 26623
961 32583 98980
962 50552 99010
963 72165 69872
964 5906 22786
965 53940 56209
966 23422 64670
967 -297 69481
968 76164 56633
969 53940 72745
970 5100 83344
971 6028 68956
972 28828 62392
973 12224 54121
974 12731 97315
975 39632 100578
976 68608 75057
977 41447 75065
978 79997 62669
979 54099 45004
980 82294 11222
981 57606 89966
982 18717 62318
983 6592 81716
984 79442 100398
985 61991 90903
986 7227 35209
987 44603 75255
988 68791 77373
989 2475 91575
990 49190 47149
991 17123 38020
992 -369 77809
993 61768 93545
EOF
