NAME : lhk
TYPE : TSP
DIMENSION : 993
EDGE_WEIGHT_TYPE : EUC_2D
NODE_COORD_SECTION
1 80000 20000
2 9281 90230
3 32398 76759
4 11866 65687
5 824 34817
6 38491 98108
7 65282 31253
8 32860 34247
9 25098 4080
10 51931 71565
11 4571 37919
12 38320 39169
13 56665 82836
14 18321 97111
15 -538 61695
16 17655 99387
17 22332 80858
18 15690 98435
19 66077 81779
20 52675 24459
21 24237 104087
22 29426 70880
23 39256 89265
24 56065 94103
25 74611 21236
26 87350 81292
27 38688 21047
28 56319 33776
29 22828 99400
30 68727 40589
31 35654 47984
32 10095 83565
33 24335 30193
34 83042 26135
35 19269 58792
36 55043 57193
37 28586 91674
38 33836 46792
39 27230 48373
40 -5057 98620
41 55541 90621
42 25422 83509
43 72285 100263
44 64631 34180
45 22486 103132
46 56598 34000
47 2931 34930
48 4621 54100
49 5863 90812
50 28429 50940
51 19659 86164
52 59422 69270
53 67990 94299
54 37200 99752
55 36646 64026
56 58953 20593
57 38121 67697
58 3982 57851
59 22664 80311
60 24971 67395
61 30842 74357
62 -3577 22075
63 50513 91965
64 49124 36972
65 24378 22783
66 11985 34524
67 48457 49264
68 59553 62428
69 58353 68479
70 51367 38668
71 64279 60147
72 75178 89567
73 36119 91902
74 23412 96426
75 1394 23909
76 6849 91120
77 23532 80873
78 1669 71757
79 9213 45672
80 28272 55692
81 42669 66932
82 10867 67268
83 37994 90178
84 61628 82902
85 44431 65949
86 59256 56723
87 493 43247
88 22415 31711
89 17352 84460
90 32593 62024
91 3931 81869
92 43808 67639
93 30363 93478
94 26051 89434
95 44204 80473
96 18455 91294
97 35402 101205
98 4352 64809
99 93576 23043
100 24008 71663
101 10248 44766
102 46924 53724
103 65173 54832
104 58115 8291
105 34035 57195
106 48900 104236
107 8560 87694
108 90706 54977
109 1391 97700
110 50133 73444
111 71130 72848
112 42564 23187
113 59288 74949
114 6295 70175
115 5844 55932
116 12946 97733
117 -9004 48222
118 63114 45219
119 60369 79990
120 22483 72641
121 38957 89055
122 22581 31489
123 -7260 46340
124 4503 41765
125 35660 73893
126 18445 35245
127 55447 76814
128 38690 45504
129 9123 42648
130 39219 89842
131 20416 60013
132 8835 73485
133 24784 67202
134 12949 24818
135 38192 75597
136 69764 100638
137 82043 53212
138 41097 58045
139 3123 94698
140 40640 102870
141 45001 74455
142 27646 81017
143 8919 49844
144 62795 49938
145 42215 74074
146 70379 96914
147 38909 86542
148 31146 58845
149 15199 47307
150 70357 93121
151 32557 100453
152 29348 41125
153 80806 70119
154 13658 89849
155 21342 47801
156 46030 46745
157 56616 87655
158 -73 40264
159 74142 94283
160 76265 79532
161 34564 29404
162 54604 61226
163 8782 80357
164 48787 61148
165 50377 26708
166 45809 95672
167 5399 44452
168 34611 83110
169 15688 83404
170 4571 79311
171 90522 49677
172 30397 71011
173 43203 91402
174 65651 69697
175 9053 44066
176 43043 72572
177 73128 8324
178 60187 92320
179 5224 76123
180 53825 86051
181 30498 42169
182 40603 92580
183 9848 46605
184 20837 90956
185 16725 72351
186 65094 97885
187 47041 52529
188 534 17270
189 61401 46188
190 42251 74842
191 59176 49038
192 39964 34264
193 2486 68144
194 35422 83472
195 37100 37611
196 73878 39950
197 14756 59758
198 53772 36010
199 81487 54723
200 1799 85102
201 5569 95477
202 78114 62769
203 55252 87685
204 12599 84936
205 82762 77588
206 29850 38472
207 40170 95805
208 5403 76612
209 45168 68259
210 46444 28166
211 37084 52310
212 10970 13379
213 10430 43280
214 707 90786
215 7733 48682
216 36653 70518
217 41248 56870
218 54778 32358
219 8753 58788
220 10382 68936
221 23541 76141
222 26934 27094
223 17629 48960
224 27134 76214
225 9500 74429
226 45446 71053
227 27057 77081
228 13309 105298
229 8874 43309
230 55784 80499
231 38567 85763
232 27205 82985
233 61765 50932
234 23776 58335
235 3547 60978
236 41017 69784
237 5709 95326
238 36137 49879
239 51799 64228
240 43895 97923
241 -5231 82949
242 37705 73215
243 83584 58964
244 92219 8975
245 16270 72932
246 52371 82021
247 17967 22898
248 796 90557
249 51326 85503
250 10921 80655
251 45471 30147
252 78549 93395
253 34540 77417
254 25375 92461
255 11408 21719
256 -2555 71430
257 33802 86151
258 40466 37312
259 6672 23874
260 55287 77575
261 93109 9000
262 44405 18427
263 55547 57325
264 -2504 82766
265 45041 60058
266 36413 95730
267 25636 79721
268 26253 65079
269 12281 26602
270 31314 50568
271 34943 76910
272 30394 86171
273 6146 68726
274 66177 94141
275 78264 39967
276 21585 57608
277 44975 44646
278 10075 68971
279 26997 31272
280 15270 44388
281 49991 81631
282 39282 49856
283 54362 56710
284 14781 43839
285 35246 20062
286 75409 87068
287 64927 62355
288 39034 8674
289 17399 82253
290 44477 26167
291 63104 67709
292 31055 69839
293 38539 85298
294 61358 67605
295 36807 77039
296 70332 23142
297 23790 91637
298 61764 75967
299 3092 70054
300 7547 24907
301 9721 87928
302 946 94106
303 30034 50067
304 16446 47586
305 10903 92283
306 53610 85918
307 22980 90657
308 30619 26476
309 38355 71261
310 46197 95948
311 35779 16325
312 94850 85032
313 -4610 47925
314 58561 101820
315 62397 33453
316 68396 76993
317 10329 84011
318 53609 74339
319 60958 97664
320 51943 81291
321 59749 84559
322 11684 83915
323 85158 89743
324 74480 32495
325 26687 54478
326 10543 83066
327 14685 66584
328 24469 68839
329 4312 42575
330 22501 67170
331 -2682 49064
332 8307 25573
333 81350 70447
334 22846 82429
335 75429 53693
336 47623 72548
337 13088 51297
338 31564 19866
339 12401 58016
340 18082 75838
341 61290 58537
342 16042 48594
343 51093 53531
344 45079 90496
345 54635 89864
346 99145 11397
347 12872 78006
348 758 61531
349 13792 21639
350 18914 72533
351 44294 67182
352 31339 20716
353 12153 50184
354 77548 87754
355 25385 27697
356 53015 42214
357 50095 45953
358 64249 53912
359 50345 40749
360 24777 61117
361 10417 86501
362 22814 80519
363 7496 16646
364 30070 3955
365 2055 92446
366 39786 67421
367 15703 14708
368 52912 89576
369 22384 92407
370 53707 81956
371 44810 56884
372 2111 65384
373 90630 80755
374 17760 43975
375 10832 78288
376 44408 91898
377 12064 70248
378 57389 35351
379 55364 76661
380 35165 27976
381 8531 100205
382 7316 65914
383 34482 66987
384 78090 61613
385 10922 38867
386 78959 76131
387 13495 90569
388 79651 54126
389 30111 33275
390 47105 101210
391 39581 65567
392 21104 41740
393 40023 91963
394 59230 66446
395 41912 87664
396 65906 86131
397 63271 50797
398 27874 45179
399 12714 63753
400 19682 88297
401 6915 78155
402 6017 91958
403 12448 17971
404 25474 43328
405 36691 68323
406 5423 95011
407 49895 84033
408 35415 10510
409 51797 91259
410 36928 95423
411 41788 64599
412 19403 67977
413 8911 20146
414 33376 54814
415 20949 50080
416 53444 86041
417 42312 88391
418 78497 82403
419 21668 92874
420 53148 19843
421 70095 61232
422 53846 32647
423 26281 51436
424 5844 45961
425 23837 83241
426 67374 53065
427 2625 72074
428 6760 80546
429 24313 78538
430 18096 80607
431 27220 97398
432 21106 77942
433 59160 63738
434 9660 84949
435 59322 102217
436 -2793 101069
437 8144 83041
438 37374 82580
439 27487 45421
440 19647 24405
441 58492 64392
442 28612 94848
443 15510 91521
444 26630 76708
445 17661 84117
446 12496 71553
447 13630 94291
448 6274 91881
449 37594 96133
450 35634 89468
451 88308 74092
452 17547 60211
453 46734 36167
454 48379 70434
455 25413 72120
456 5671 23718
457 30095 91586
458 14070 70601
459 55276 45677
460 41069 65210
461 67172 71439
462 41425 51764
463 10488 91665
464 5086 48056
465 65809 103562
466 67917 83427
467 70334 51599
468 31071 29722
469 53152 68076
470 13803 77011
471 31982 98055
472 48290 62633
473 56081 51373
474 82467 92825
475 23009 29008
476 23642 44603
477 15441 43687
478 65046 89789
479 67834 71672
480 17929 74739
481 46540 42974
482 68364 79635
483 12279 69802
484 100868 6148
485 45763 78846
486 65218 55080
487 20597 42777
488 27715 82848
489 18727 8595
490 3396 49338
491 25763 80831
492 18498 92355
493 58098 57970
494 29959 62868
495 78144 92511
496 19286 83672
497 29445 45740
498 86158 51948
499 53781 64236
500 -2822 30855
501 10016 72220
502 37606 75132
503 18076 67529
504 14053 74639
505 66382 24771
506 21937 48424
507 89056 65751
508 21602 56726
509 31141 47382
510 57128 68813
511 18400 51311
512 42381 100923
513 40290 43686
514 54587 71225
515 7416 31112
516 59382 64719
517 45235 94291
518 2781 68356
519 50111 -189
520 61865 55778
521 82726 35782
522 24061 98592
523 41508 42548
524 49527 60723
525 17325 72146
526 26802 48818
527 28764 67118
528 4091 53966
529 91929 74356
530 31502 35802
531 40940 85317
532 -2180 61190
533 43423 103443
534 42431 61359
535 12845 48815
536 22851 35325
537 48729 90719
538 16826 80570
539 55254 66169
540 45354 89634
541 40619 76996
542 51899 106840
543 8384 56021
544 16733 51067
545 58910 91457
546 27491 60399
547 2650 89201
548 -8219 92132
549 36339 90328
550 32669 41948
551 21058 77011
552 14513 69117
553 24354 72868
554 68823 45653
555 548 83307
556 47103 17432
557 11399 74744
558 18041 82915
559 44978 63414
560 35111 98974
561 10452 79806
562 33550 81238
563 42779 81245
564 55716 86011
565 43655 84677
566 22751 56901
567 30292 49758
568 51121 86660
569 15548 100707
570 34154 103630
571 14340 81110
572 31350 60458
573 14939 22973
574 36464 11701
575 31913 79142
576 59630 91548
577 43393 56429
578 50972 65840
579 22184 82410
580 72425 74871
581 78253 105246
582 56146 15472
583 50468 66982
584 71626 59446
585 59218 99422
586 9102 94091
587 35268 27660
588 24028 65895
589 5783 18512
590 10026 60456
591 87791 30378
592 33928 67476
593 80543 45853
594 19665 99464
595 61029 43633
596 65115 63922
597 38347 56633
598 45805 56022
599 66570 21443
600 27713 59714
601 15811 62556
602 21531 65490
603 30972 20887
604 29837 54733
605 19876 75931
606 57173 69414
607 67887 43235
608 7368 76645
609 22165 80641
610 79531 34167
611 16962 90528
612 27368 97455
613 24018 29182
614 38578 97627
615 38586 78403
616 6261 86004
617 14338 41895
618 57663 66853
619 53781 85679
620 29198 36163
621 58542 94961
622 44766 55472
623 70528 83839
624 61622 54252
625 53650 108246
626 53645 70393
627 33351 20289
628 96100 21784
629 8034 87480
630 12193 4219
631 13106 63737
632 27659 101394
633 51213 83372
634 27645 45800
635 49391 38512
636 23696 73872
637 40810 74192
638 5316 89431
639 32329 86711
640 13766 73874
641 27295 57940
642 12186 24163
643 56879 85438
644 29453 13944
645 61197 48740
646 28807 62885
647 -3616 11683
648 62007 64060
649 77556 82279
650 39593 76985
651 64465 68372
652 23734 94971
653 11426 51722
654 42712 19938
655 61355 74272
656 19684 40954
657 77280 53488
658 7639 72686
659 14395 71401
660 45959 83794
661 92389 74270
662 26294 26470
663 25881 69073
664 23232 48851
665 20006 43918
666 6866 70826
667 71566 90312
668 2396 71002
669 62323 62781
670 31780 10345
671 72905 44092
672 52385 79457
673 27745 87602
674 9199 25553
675 9410 19511
676 60445 40384
677 35344 58290
678 8595 53549
679 11194 91289
680 31051 39085
681 13818 69376
682 50852 25523
683 5687 9991
684 42841 64814
685 88249 62075
686 95482 82214
687 3627 72379
688 32045 41175
689 38482 55548
690 40820 68540
691 45051 85955
692 16921 53811
693 34676 39559
694 4632 89374
695 11075 76412
696 14073 90444
697 22424 87358
698 24325 80034
699 18670 51352
700 14679 81927
701 15399 37092
702 14252 71018
703 23930 20682
704 14526 63942
705 27376 11839
706 20832 48945
707 28494 42969
708 30805 83204
709 12427 50608
710 31009 25473
711 7866 33626
712 2201 88911
713 21215 90787
714 47243 94914
715 13342 93138
716 31389 58527
717 55022 46278
718 7311 72715
719 2095 79435
720 136 84066
721 26934 61472
722 75276 11237
723 4693 6939
724 23984 42977
725 40951 70990
726 82496 88853
727 18093 81667
728 57450 74519
729 6379 84709
730 17836 60768
731 27383 74509
732 14927 46289
733 33207 61510
734 26659 65728
735 5488 58102
736 28599 59683
737 -4545 80611
738 55414 93096
739 37514 97467
740 14021 68707
741 82984 84971
742 9404 22452
743 78657 91428
744 54229 60535
745 69025 78922
746 73929 39225
747 48691 95088
748 6371 66388
749 24797 42261
750 7031 47993
751 22565 100307
752 45978 26274
753 32107 99980
754 27366 102396
755 56708 98123
756 34226 79345
757 27804 54036
758 33272 84163
759 17985 46557
760 4167 81260
761 9261 61690
762 35352 92440
763 58115 70258
764 41674 100115
765 19972 67345
766 41736 52777
767 41760 99516
768 67313 53860
769 30738 95194
770 52575 72123
771 11810 31764
772 17042 45227
773 27957 60366
774 23444 82858
775 51268 93083
776 71239 79304
777 17189 103914
778 55569 11204
779 42377 49627
780 50812 68545
781 16077 81085
782 59218 31187
783 50099 78556
784 36607 43614
785 12119 54829
786 55500 36803
787 28260 89821
788 26669 37425
789 30257 66567
790 24080 84318
791 31167 39994
792 51398 56458
793 -2027 90602
794 52444 68261
795 2292 27640
796 31075 100261
797 18680 85470
798 17778 50686
799 38351 58111
800 -6018 74533
801 44530 73950
802 61113 80854
803 48460 83311
804 6080 87222
805 45723 66280
806 8164 48362
807 32787 80776
808 44598 83392
809 35151 94344
810 38777 58716
811 50683 68594
812 30758 33751
813 11622 3200
814 64474 82822
815 46282 97289
816 6599 97262
817 58044 89004
818 59543 90047
819 77561 78181
820 61094 26949
821 89163 98160
822 62960 30612
823 28811 23931
824 60310 92117
825 20613 22801
826 23285 73402
827 55057 77855
828 -3092 90841
829 51988 38927
830 23053 26040
831 1653 79392
832 52996 20424
833 58731 74973
834 10329 87023
835 44429 38126
836 78868 41594
837 15154 37619
838 72142 80706
839 83214 57597
840 37509 57725
841 33787 79624
842 10162 47836
843 65895 49779
844 43962 57850
845 56036 37323
846 66667 84724
847 14586 73082
848 58320 67479
849 38905 38176
850 -2135 54054
851 68215 57085
852 49234 91254
853 66524 56561
854 43148 42588
855 73401 94352
856 55499 71555
857 69177 98060
858 43868 80600
859 8711 44969
860 25926 85288
861 7974 75831
862 48067 85640
863 40370 50330
864 13666 42857
865 80487 90021
866 47953 31029
867 40594 88294
868 68689 71190
869 1371 95129
870 23708 34871
871 44231 42581
872 20789 96963
873 41371 79480
874 53323 36505
875 37069 104583
876 54504 35594
877 35577 48657
878 46185 90084
879 29974 70802
880 11616 70054
881 52471 86247
882 9422 6902
883 50506 99517
884 35787 20367
885 90292 55146
886 16204 96441
887 12933 77715
888 50808 82023
889 23493 73438
890 91637 97403
891 -8684 79100
892 38642 60229
893 8710 84543
894 89688 94898
895 53833 71424
896 49623 73231
897 54610 96754
898 29065 57367
899 311 29081
900 22227 23981
901 72245 73001
902 21896 55915
903 31217 25034
904 30950 73240
905 66478 75745
906 12647 77263
907 58525 35033
908 61166 57466
909 26634 58120
910 10763 44412
911 38275 68744
912 64719 94273
913 39258 63619
914 34604 47033
915 6902 87397
916 23413 25162
917 18173 77108
918 32366 46428
919 31753 89392
920 26949 91344
921 78891 47313
922 56081 80573
923 35883 55711
924 47942 44476
925 27336 67809
926 5503 56788
927 57404 51543
928 24517 66585
929 85564 100045
930 40673 51965
931 53561 38266
932 60538 85226
933 79686 52710
934 10215 97157
935 47281 34793
936 46648 45663
937 10536 50197
938 66789 87884
939 17798 48327
940 3869 64323
941 57451 77218
942 74718 57365
943 63537 56634
944 6789 29868
945 4401 87885
946 41017 48126
947 26366 76663
948 40192 82679
949 18788 68489
950 18625 46155
951 18823 79761
952 86078 49260
953 53301 82223
954 3076 93746
955 31255 68752
956 16695 72225
957 29262 57868
958 21397 59149
959 2442 41926
960 56588 28551
961 32278 96249
962 48891 98327
963 79475 69832
964 -1220 19041
965 57977 64265
966 31996 62022
967 -6245 62876
968 87112 51380
969 48486 77096
970 11073 89632
971 19143 67628
972 20186 64134
973 4905 57291
974 12698 90572
975 45591 99586
976 82911 75094
977 38461 83250
978 88804 69365
979 46061 40529
980 87013 6800
981 58184 103246
982 20121 58434
983 9799 87428
984 87976 92212
985 66847 88577
986 16444 29433
987 44715 69392
988 61585 84091
989 -1494 102109
990 37199 43166
991 10226 29777
992 1376 75626
993 61499 91235
EOF
