NAME : lhk
TYPE : TSP
DIMENSION : 154
EDGE_WEIGHT_TYPE : EUC_2D
NODE_COORD_SECTION
1 80000 20000
2 63398 16232
3 63128 16015
4 51507 13516
5 33341 19580
6 30867 20541
7 29856 23609
8 11877 15578
9 20798 47092
10 27936 67970
11 27882 43715
12 35578 18711
13 28712 21378
14 28507 22645
15 73340 43215
16 81670 48995
17 85552 51399
18 70392 48318
19 39233 41124
20 39891 41487
21 41209 40755
22 38554 43195
23 39908 42215
24 30698 42722
25 33967 44820
26 27746 43592
27 28110 59767
28 27225 55579
29 30441 60473
30 11933 52706
31 12280 39233
32 9173 43504
33 11925 52351
34 11185 54734
35 12279 53248
36 11485 51260
37 16277 45250
38 13728 50183
39 13862 41614
40 11337 35722
41 11801 30952
42 15425 28680
43 11688 21978
44 11216 16149
45 11661 17450
46 10173 48120
47 28343 57167
48 12192 48584
49 27092 67934
50 28649 53749
51 17905 41047
52 10693 69842
53 10085 73195
54 28986 64223
55 10142 72090
56 18857 69761
57 30711 63543
58 23913 65412
59 29350 73390
60 39768 74412
61 40529 69687
62 46264 61844
63 44696 58618
64 28709 53076
65 39824 48804
66 45379 51890
67 41628 69814
68 60403 65969
69 52551 56336
70 42748 67047
71 43562 65034
72 47108 64964
73 44059 67420
74 56573 74820
75 67529 52050
76 65009 53207
77 57500 75010
78 67327 65662
79 73022 59171
80 76550 64629
81 75717 68768
82 81903 87515
83 84144 80071
84 85369 81715
85 86021 81978
86 79499 88038
87 79299 89336
88 79681 88422
89 70402 86030
90 67213 86384
91 58618 87270
92 61009 88745
93 49311 78809
94 53592 87909
95 51670 88183
96 55073 77116
97 51377 80324
98 34259 70094
99 44748 88430
100 32245 88716
101 32677 88856
102 34729 90360
103 49281 88326
104 36343 88623
105 26702 88724
106 20114 85492
107 24733 88562
108 13632 70200
109 11873 68035
110 16575 76681
111 23941 87615
112 25849 89127
113 25836 89384
114 9225 88837
115 10305 86882
116 7781 87892
117 10683 69850
118 11758 71183
119 17656 86247
120 33094 88697
121 19895 69673
122 32752 88704
123 30724 88379
124 25114 87207
125 30286 88760
126 50594 72969
127 49654 80511
128 47659 75206
129 47231 86137
130 53592 87909
131 57065 79039
132 60303 79165
133 80290 88062
134 75228 66268
135 63677 67753
136 50728 72866
137 48457 74599
138 36959 69765
139 36276 65217
140 68399 52215
141 43325 48679
142 50704 41554
143 52374 38204
144 46895 38515
145 57117 40679
146 56756 36996
147 69447 44533
148 67085 46210
149 87687 47538
150 78304 46580
151 86605 49300
152 86508 40166
153 86444 34188
154 86268 17591
EOF
