NAME : lhk
TYPE : TSP
DIMENSION : 154
EDGE_WEIGHT_TYPE : EUC_2D
NODE_COORD_SECTION
1 80000 20000
2 86143 17474
3 82775 26850
4 80149 32456
5 82003 43653
6 77645 50680
7 75791 47097
8 74709 44866
9 76627 49395
10 75791 48327
11 75591 50207
12 71195 53831
13 77184 50098
14 74540 53389
15 83878 59243
16 82480 57761
17 61544 61627
18 77848 71685
19 62182 70659
20 83407 59105
21 81594 60836
22 77424 70850
23 76950 69741
24 80223 75655
25 86171 80767
26 85798 87043
27 81231 88186
28 77025 88144
29 69656 89249
30 40379 89983
31 61399 89888
32 57320 90293
33 57149 88871
34 43720 89250
35 57672 89041
36 56368 88468
37 57505 90094
38 50494 77277
39 48716 86219
40 57109 88858
41 46655 77521
42 52611 76032
43 52238 78690
44 40118 91035
45 40084 91260
46 41307 91165
47 43978 88083
48 39273 85404
49 36906 87302
50 38840 90485
51 47142 77490
52 42220 84611
53 35768 89163
54 36411 90242
55 34046 87475
56 25475 88537
57 25566 89025
58 9546 88915
59 9410 89051
60 17731 88552
61 9420 88957
62 21672 88537
63 16419 90547
64 23018 88532
65 22845 88020
66 24319 74433
67 20393 87525
68 46837 77510
69 53543 73882
70 59483 72252
71 53619 65804
72 57891 57234
73 51806 47492
74 71694 88091
75 77609 88226
76 60609 90000
77 61007 90050
78 46799 77512
79 54203 72361
80 41113 66106
81 47065 77495
82 41540 66994
83 40962 67081
84 26077 73652
85 38202 60296
86 39246 61163
87 35689 56380
88 29280 45592
89 40561 64962
90 29715 41067
91 34287 54195
92 29406 44286
93 29028 42365
94 31054 40427
95 29715 41067
96 32965 28621
97 29715 41067
98 30847 38331
99 35109 35544
100 33826 33353
101 33330 18849
102 30883 21784
103 15877 27925
104 17603 27989
105 16467 20033
106 12592 15123
107 12282 15613
108 12064 18756
109 12126 26135
110 12253 26985
111 11867 33082
112 11717 42913
113 10149 45120
114 10519 52226
115 11711 42928
116 13737 46131
117 15249 63785
118 10449 52776
119 14507 62240
120 12203 68532
121 11458 69203
122 11847 44830
123 9190 57199
124 8155 60951
125 22671 66277
126 22172 67932
127 17408 63922
128 10305 75295
129 10089 75459
130 11829 72397
131 10155 77751
132 10146 79411
133 24733 74641
134 22074 69807
135 15820 59721
136 22964 71639
137 19078 64074
138 10606 75180
139 23259 74697
140 22380 74366
141 40474 64781
142 29183 46605
143 28599 45663
144 33009 26113
145 43163 17741
146 52778 50342
147 32784 37297
148 51363 45695
149 32162 37231
150 50151 34267
151 56428 33048
152 56333 33066
153 61064 15815
154 63712 17704
EOF
