NAME : lhk
TYPE : TSP
DIMENSION : 993
EDGE_WEIGHT_TYPE : EUC_2D
NODE_COORD_SECTION
1 80000 20000
2 18333 84353
3 31394 79786
4 -1043 68703
5 8345 21702
6 50544 107556
7 60687 30032
8 38691 40869
9 17937 14920
10 56737 75139
11 19109 43393
12 22861 34328
13 50654 83449
14 25194 97530
15 8023 72233
16 28823 100100
17 24167 85822
18 18136 96003
19 53092 78923
20 48145 41218
21 36059 107492
22 36557 71871
23 33307 91806
24 49430 97810
25 76771 26337
26 100433 80214
27 34288 19932
28 61316 37243
29 32097 108602
30 68900 40047
31 26240 62396
32 10811 81542
33 18978 38814
34 79421 27850
35 23384 67830
36 45395 59992
37 23736 84401
38 26529 46169
39 28588 50919
40 -7392 91469
41 53131 85502
42 19082 79443
43 60201 87745
44 58409 39414
45 20436 100431
46 62244 42870
47 6509 39998
48 9243 50957
49 12517 91712
50 30552 47167
51 17977 94225
52 68372 74689
53 59570 92630
54 36645 97340
55 37962 50488
56 62738 29458
57 42246 69924
58 -276 58390
59 21669 92886
60 26416 64921
61 19501 80645
62 2478 20202
63 48547 98530
64 44691 43455
65 23179 20415
66 18779 35418
67 41339 40760
68 60092 69097
69 55263 57587
70 49777 40337
71 61642 58144
72 74291 76964
73 28426 92269
74 31720 94085
75 6753 31241
76 -370 79161
77 31135 84347
78 -1609 66503
79 13815 41687
80 24735 52161
81 39361 63830
82 19418 61343
83 44585 87324
84 68930 82399
85 47699 72369
86 55309 51699
87 695 35876
88 10871 42349
89 14535 82559
90 33092 54507
91 -3057 91358
92 60277 74173
93 37082 85851
94 16725 80883
95 46557 74369
96 6222 91701
97 29235 90577
98 18431 65072
99 91177 31889
100 21407 70690
101 5404 52171
102 48268 57579
103 66832 58992
104 64111 2311
105 33975 64292
106 35710 97408
107 13698 89890
108 92266 51438
109 2467 88210
110 51965 82429
111 79018 59738
112 43610 17277
113 55584 71942
114 23784 64668
115 17699 69228
116 15658 88922
117 261 49028
118 59051 54834
119 52717 89966
120 11810 68526
121 42142 92701
122 17602 38484
123 -81 55084
124 17464 34915
125 42367 74692
126 25811 30792
127 56733 77198
128 34812 58391
129 1060 46447
130 45827 93526
131 12641 66967
132 21003 62284
133 13854 75296
134 4090 39132
135 47115 65708
136 87648 105318
137 86149 51186
138 32275 74350
139 9453 84211
140 45609 105948
141 56878 87458
142 31587 86619
143 10524 44066
144 66776 47842
145 42110 74350
146 64125 94647
147 39897 82269
148 41318 47656
149 20353 31787
150 70209 93213
151 38710 88686
152 36119 39535
153 70361 63976
154 -2926 91913
155 8956 43188
156 35709 37004
157 50762 94559
158 -7735 46547
159 70927 93139
160 76859 81431
161 26607 33391
162 44704 61458
163 17518 72594
164 46800 68896
165 49174 23991
166 42153 94800
167 4251 55162
168 24185 80983
169 16410 71402
170 10235 93075
171 86476 65033
172 35221 71793
173 33237 89069
174 71892 71879
175 18842 43973
176 47046 63912
177 65281 20305
178 60005 93543
179 3265 81853
180 46992 81326
181 40018 49915
182 38929 96822
183 13141 50364
184 28411 93692
185 18744 78786
186 61569 84746
187 49403 55420
188 5863 12773
189 55216 55494
190 31395 79033
191 58248 61951
192 42636 30705
193 12190 63680
194 39192 79925
195 41328 46620
196 80595 47891
197 13843 54161
198 43388 48262
199 83128 57312
200 -818 97638
201 11627 98904
202 69779 65747
203 55220 93113
204 5616 81466
205 87888 72194
206 15894 41331
207 43390 89027
208 2419 69284
209 46525 70806
210 40068 33831
211 43758 41818
212 16319 19295
213 15920 36992
214 883 97193
215 3014 54338
216 42336 82101
217 52755 55294
218 65022 45373
219 6973 62592
220 1346 63126
221 12273 79162
222 29248 36725
223 8381 50137
224 28780 79197
225 -694 76105
226 43448 60168
227 35506 71018
228 15931 89515
229 7601 45291
230 60991 82951
231 37671 90642
232 35140 78598
233 76215 34213
234 23037 58027
235 -1917 63643
236 47377 68084
237 13559 93487
238 29160 46555
239 61616 64192
240 35929 98658
241 9689 76986
242 36786 85255
243 87725 56950
244 95472 1795
245 9068 89860
246 44631 83101
247 18975 11637
248 9230 89895
249 45139 78783
250 14465 82887
251 45372 40515
252 70761 96252
253 30693 80121
254 36289 78772
255 24521 18691
256 3751 66222
257 29559 90106
258 49791 33411
259 -1676 29164
260 66541 83301
261 83099 5885
262 41390 26119
263 58747 59203
264 4652 89042
265 43388 56055
266 39304 104286
267 31374 69632
268 33466 63162
269 24162 30715
270 30322 41974
271 32221 80273
272 26563 87168
273 23917 65300
274 64026 92258
275 73041 43375
276 20903 77943
277 55739 47057
278 3496 68665
279 28429 22770
280 17045 53250
281 52175 80664
282 44148 53784
283 53391 64815
284 9206 35711
285 17976 27999
286 69792 81918
287 54061 61048
288 37860 13229
289 20383 92478
290 53757 23445
291 68076 72809
292 36587 64383
293 46317 78731
294 51238 51424
295 38195 78802
296 64256 22928
297 29669 83413
298 66999 81483
299 2583 74503
300 11228 29075
301 -2633 76443
302 4246 91445
303 34050 41552
304 12897 52639
305 17237 96874
306 39840 87104
307 19978 98760
308 39167 23526
309 30298 68466
310 40037 95665
311 40108 20653
312 97086 81923
313 10423 35151
314 58890 86804
315 71801 41413
316 52372 82821
317 2844 86485
318 66979 85168
319 70349 96287
320 46046 80021
321 45361 79931
322 15384 77965
323 80400 91924
324 76135 39591
325 25901 51660
326 9695 84642
327 22174 78186
328 17287 70844
329 2159 40700
330 22632 69460
331 12509 35448
332 5434 21445
333 79902 72333
334 18719 72197
335 80493 60723
336 55445 83903
337 20204 61993
338 30719 17942
339 10315 67722
340 19144 79495
341 58658 68155
342 5749 48679
343 51804 39547
344 42936 98167
345 58832 96637
346 92074 14362
347 7096 78291
348 -4298 72418
349 16189 22985
350 33943 60327
351 41323 75791
352 31949 10672
353 12232 53739
354 70588 82931
355 25896 32105
356 47173 32523
357 40575 41990
358 58972 39114
359 69049 34820
360 37635 62725
361 21865 86938
362 7901 69627
363 11431 12339
364 33334 11909
365 3018 88542
366 41568 68416
367 13531 17367
368 58355 91834
369 29703 98969
370 56066 81925
371 35763 63900
372 -226 63115
373 98914 81945
374 12609 46338
375 12117 79607
376 43678 104270
377 -1123 62725
378 57689 37448
379 54448 76217
380 38640 38425
381 -3502 92640
382 6225 74097
383 24074 58593
384 88970 65092
385 10296 49758
386 73979 72300
387 16981 79848
388 68474 56732
389 27809 38810
390 49094 102116
391 23543 58893
392 11631 45947
393 34453 88348
394 69603 71160
395 39466 86976
396 62182 69273
397 58725 45881
398 20872 37337
399 15870 74920
400 13101 80702
401 20653 77579
402 2294 92364
403 15304 18530
404 25609 43694
405 47108 68792
406 8241 101114
407 50269 83832
408 38152 5064
409 41078 82222
410 27430 103016
411 44175 63100
412 17856 62329
413 3979 27098
414 23559 46672
415 30016 40310
416 53256 84743
417 39341 89328
418 76400 89678
419 21848 85407
420 49925 29460
421 74801 54326
422 43823 34692
423 11812 51624
424 14484 41376
425 27193 76743
426 73639 51820
427 3173 83512
428 5449 69056
429 20684 83021
430 5641 68256
431 23220 91112
432 23025 77603
433 64654 73505
434 9477 79598
435 52891 100299
436 8833 99546
437 9712 84249
438 40285 90704
439 20457 47898
440 25331 26886
441 56275 59153
442 22383 97584
443 16568 92743
444 19017 75898
445 10333 83010
446 -2464 79961
447 10816 94834
448 1541 92825
449 32758 105762
450 45650 91187
451 95140 68786
452 20878 62256
453 43817 49378
454 52130 67447
455 27823 75696
456 3937 22222
457 26133 95550
458 8560 86511
459 61023 43431
460 41517 61802
461 60832 75300
462 38216 54514
463 15109 96385
464 -1684 43861
465 64097 94707
466 65946 86028
467 72336 46654
468 43776 31802
469 60174 55794
470 29144 85954
471 39967 99451
472 46763 58484
473 47483 41867
474 87606 98977
475 18325 22573
476 21072 51997
477 18686 43339
478 60270 91946
479 55527 64688
480 9852 74525
481 43222 39342
482 73316 78498
483 18883 56424
484 92467 8565
485 47392 70857
486 64270 56006
487 23976 35184
488 9584 69845
489 11608 12866
490 11728 44211
491 31541 86072
492 25103 100037
493 54741 45826
494 37686 61776
495 73309 96552
496 19560 80708
497 17146 45264
498 97246 58306
499 58942 55151
500 -6233 40996
501 12571 69819
502 32970 68148
503 12648 75688
504 4842 69275
505 60364 29164
506 9801 44553
507 88635 60179
508 30036 54111
509 25505 52162
510 69306 78999
511 38185 53955
512 62091 95272
513 41364 45691
514 48608 74012
515 3183 36067
516 59243 64573
517 44755 89237
518 -5155 72143
519 41897 6434
520 58280 48771
521 93284 45156
522 24532 106983
523 40646 41930
524 37793 76985
525 15417 62027
526 31530 50216
527 22303 70717
528 5591 53020
529 84078 71281
530 34727 40180
531 38431 84590
532 2188 65298
533 51001 97176
534 41594 69472
535 13155 47829
536 36140 47483
537 50294 91160
538 23332 76768
539 54561 63314
540 38164 100065
541 45641 69183
542 50081 104845
543 9799 55737
544 27697 44110
545 74900 96521
546 27199 64952
547 5480 81257
548 3151 88304
549 40428 97082
550 25265 36141
551 25339 78300
552 23919 71594
553 18672 63056
554 70792 52407
555 11576 79829
556 56117 32121
557 7060 76242
558 12100 88814
559 41711 60559
560 46244 99942
561 8493 70133
562 42283 83732
563 53276 86671
564 50207 76475
565 40940 81472
566 19555 65213
567 39421 38646
568 60904 85859
569 6236 97832
570 37471 96589
571 12708 83079
572 28287 71887
573 7180 27608
574 30936 12084
575 30885 73116
576 61421 84309
577 41603 60247
578 50837 57402
579 15654 83702
580 63985 78405
581 82296 103872
582 63511 16945
583 54886 70759
584 65405 48714
585 63625 93135
586 1720 93727
587 44366 30569
588 37054 68931
589 10828 12628
590 7235 58286
591 88180 33977
592 31280 60098
593 67412 48286
594 27923 99265
595 64925 35525
596 76836 66432
597 43824 65090
598 48411 53767
599 76757 16501
600 26183 62361
601 16322 64104
602 20407 67932
603 24946 27262
604 40595 54554
605 32708 70974
606 58287 68655
607 67679 44831
608 2080 66851
609 21256 79310
610 81590 43934
611 31195 98697
612 31307 103942
613 23133 36631
614 33486 92399
615 37292 76293
616 1313 79058
617 14093 42456
618 52376 63947
619 50949 90879
620 27715 44796
621 66977 102818
622 49553 47609
623 71299 81920
624 61494 53391
625 52236 106054
626 47258 68027
627 30957 22672
628 97191 9931
629 2603 82596
630 6422 1103
631 13964 66901
632 35150 99741
633 47531 76295
634 19963 53967
635 59635 46409
636 28146 80041
637 44095 82719
638 1186 90830
639 33174 88423
640 -3628 77719
641 36249 51899
642 14306 22662
643 54321 89497
644 25787 18868
645 59002 46293
646 23893 67977
647 7160 16498
648 63843 53369
649 91167 84437
650 46654 88251
651 66114 71690
652 24136 97224
653 20350 45333
654 43470 6061
655 65885 72989
656 17803 39183
657 72416 61027
658 5069 78624
659 32186 68881
660 39364 91145
661 93442 67186
662 8395 25457
663 32648 77618
664 22463 40632
665 26073 45288
666 6524 59283
667 80185 88949
668 3042 74759
669 65544 71662
670 26246 13443
671 74793 43243
672 57997 72848
673 37013 95860
674 12353 34079
675 -1403 15585
676 63137 43892
677 48415 65947
678 12788 60698
679 -946 87706
680 26611 31568
681 17761 70066
682 54284 39556
683 13208 20665
684 41646 64525
685 92298 66162
686 102500 90700
687 3168 60238
688 40496 44462
689 22844 47373
690 32410 75822
691 55737 88991
692 24655 55072
693 41203 39248
694 7333 82686
695 13616 72644
696 20255 89573
697 17412 88707
698 25230 81511
699 15392 55840
700 14047 85645
701 12112 33645
702 18917 71598
703 25107 22986
704 2046 67499
705 33472 16146
706 23872 57223
707 35428 43411
708 36093 93671
709 1748 63297
710 26848 34844
711 15011 36792
712 9727 95361
713 12442 96468
714 45640 95132
715 23946 96132
716 44929 62132
717 49228 40536
718 -1527 65479
719 -290 85719
720 2498 74288
721 25212 66044
722 65367 10313
723 -545 8349
724 30057 39479
725 32770 73169
726 83494 90168
727 20427 84722
728 73555 78524
729 1618 76531
730 25556 61738
731 28521 76610
732 9598 45056
733 51883 62478
734 15879 59311
735 2717 66289
736 17634 57438
737 4436 87784
738 57546 83981
739 25433 97874
740 5561 68111
741 86985 79501
742 11358 25531
743 76747 85969
744 44428 63287
745 77032 79808
746 82430 38824
747 46443 102746
748 5183 68481
749 37134 42579
750 1590 58270
751 19589 96325
752 53332 29393
753 40789 102249
754 21424 91878
755 64806 92423
756 43163 78488
757 24126 66172
758 21672 82790
759 11413 44929
760 986 76478
761 8053 69117
762 28060 93206
763 62850 68656
764 40660 101936
765 14817 61058
766 48507 67620
767 40809 102063
768 65223 47921
769 27169 92710
770 44692 74925
771 9759 40505
772 20607 38910
773 7210 64747
774 34182 84337
775 49464 95994
776 78147 72353
777 23014 97111
778 68115 10173
779 43406 54722
780 51415 76991
781 21231 84764
782 69706 37434
783 50391 80001
784 34444 44201
785 11794 57499
786 45616 40915
787 31909 98974
788 31421 28420
789 30442 60536
790 26873 82494
791 50699 40697
792 50595 60615
793 4341 88982
794 54122 58683
795 -1735 36474
796 36830 100188
797 15772 80883
798 20156 45027
799 49845 54950
800 -1287 67757
801 52233 78318
802 64819 91721
803 49250 72320
804 5890 89791
805 39402 65401
806 15063 41651
807 38919 77990
808 42348 83306
809 29124 96333
810 34796 60704
811 54770 68830
812 22071 31990
813 9827 -1590
814 79228 95698
815 47491 99925
816 15536 88175
817 59502 86412
818 74613 94336
819 73951 79259
820 50802 23560
821 77837 90917
822 62152 33771
823 44689 27635
824 64508 94353
825 30166 21721
826 9749 83572
827 53487 89567
828 7127 93032
829 59268 44444
830 29709 26021
831 1788 72225
832 59708 28066
833 57434 80746
834 19634 95161
835 43597 36072
836 84279 36128
837 20710 24022
838 76399 81160
839 84525 51044
840 34744 54702
841 39833 78495
842 13510 51214
843 56451 56260
844 50862 52609
845 57543 42509
846 62164 89233
847 27332 61241
848 65738 71778
849 46517 34472
850 -10403 58206
851 80397 56140
852 59094 85972
853 80220 69810
854 28579 36520
855 65672 94328
856 49067 67769
857 49575 101967
858 42846 75091
859 18592 47051
860 26152 88563
861 8189 80629
862 54495 83083
863 40453 42452
864 2896 46683
865 76707 85704
866 48546 28801
867 52485 96947
868 71402 72787
869 5211 98326
870 37228 34419
871 53548 39116
872 25762 106736
873 36755 78755
874 50736 26961
875 42962 105944
876 51757 56972
877 36740 53161
878 27577 89026
879 29000 61042
880 3119 77223
881 51871 84610
882 11344 12050
883 47937 109366
884 33670 22465
885 97796 48881
886 32461 84927
887 19396 80550
888 57547 89445
889 16423 71190
890 93139 92906
891 6553 69532
892 38080 57609
893 5189 92414
894 87123 96818
895 45583 66243
896 51925 77553
897 59470 89115
898 15785 54582
899 -969 38201
900 11142 24846
901 79139 68820
902 27830 60297
903 20546 23819
904 26860 63425
905 61019 62609
906 7642 75268
907 47718 41759
908 64664 54465
909 21458 42108
910 9777 47594
911 44385 67938
912 59613 105083
913 35999 57661
914 31828 48588
915 7440 97501
916 17774 25274
917 14887 86324
918 44992 43410
919 27511 97288
920 35239 91627
921 76690 50639
922 52291 75809
923 34270 57073
924 41255 53041
925 21053 69604
926 14084 62783
927 60689 51356
928 23474 69165
929 84218 103570
930 44176 51530
931 55700 37906
932 72327 81489
933 78102 52409
934 16602 94975
935 46615 34451
936 41104 34236
937 1583 53052
938 70225 80257
939 17819 46238
940 1166 66901
941 48329 74418
942 65883 53702
943 69629 68188
944 13921 28436
945 1653 81343
946 39082 48735
947 20948 71957
948 45084 95843
949 8557 76844
950 14704 39525
951 23325 73299
952 79863 53552
953 53603 83300
954 5842 87914
955 22034 83779
956 15596 73448
957 11616 58246
958 33835 65835
959 6883 36012
960 70393 23159
961 41914 96461
962 38582 95397
963 62601 69084
964 4245 27518
965 51197 68112
966 26766 72355
967 10700 65403
968 79102 52625
969 48789 68660
970 3188 91149
971 11354 67643
972 24334 68725
973 20161 53351
974 10066 85243
975 30327 104911
976 69537 73532
977 29979 76468
978 92564 59678
979 63320 34711
980 83167 15169
981 63106 92184
982 24607 60889
983 11061 85353
984 89899 100664
985 64344 91564
986 9822 33921
987 54704 73959
988 64170 66091
989 -4006 94916
990 28898 44647
991 18187 46072
992 4858 77498
993 67917 97657
EOF
