NAME : lhk
TYPE : TSP
DIMENSION : 174
EDGE_WEIGHT_TYPE : EUC_2D
NODE_COORD_SECTION
1 80000 20000
2 83570 17856
3 86226 64948
4 66625 64132
5 70910 72214
6 75619 61950
7 71492 86963
8 81911 73892
9 84576 83578
10 86001 83362
11 70957 90210
12 83395 85067
13 70957 90210
14 72312 91550
15 75867 93232
16 71164 89198
17 55561 93584
18 59081 88114
19 57076 88436
20 54692 88809
21 38489 92278
22 45748 88320
23 41671 58195
24 12459 74523
25 10138 89158
26 38488 92277
27 56655 93389
28 34165 56844
29 20340 42064
30 19585 42529
31 11888 47999
32 9760 47026
33 27749 44140
34 27869 44064
35 27912 43687
36 45945 38107
37 46003 61230
38 43427 38806
39 44602 40472
40 41890 40529
41 46283 37718
42 49579 35180
43 67280 21228
44 47467 37019
45 53474 34117
46 65806 50976
47 65730 50767
48 63027 48119
49 61646 45439
50 68937 51800
51 73717 51956
52 76351 52328
53 66136 64133
54 70810 66656
55 67902 68824
56 71877 69788
57 59830 69369
58 56716 71011
59 53190 76183
60 38077 85767
61 49734 69094
62 46939 74795
63 43386 77217
64 24346 91044
65 42853 77198
66 30030 82244
67 31848 81079
68 33273 78105
69 32396 88261
70 17113 88189
71 24616 88243
72 20445 88764
73 20016 91487
74 10086 85454
75 10824 78320
76 9968 89381
77 9876 89466
78 9942 88634
79 10600 79100
80 32604 87690
81 30025 81009
82 33379 88299
83 30703 87195
84 33778 91821
85 30290 88451
86 30169 90868
87 34427 89288
88 33325 87727
89 38489 92278
90 44795 78026
91 38489 92278
92 30827 77239
93 21558 66690
94 18376 70603
95 27833 70114
96 41206 61322
97 37406 61591
98 30021 79881
99 35278 55919
100 33735 54633
101 20417 63947
102 39806 60046
103 21629 69355
104 30419 50607
105 20733 64244
106 30919 51945
107 28843 52554
108 15521 52968
109 31358 52345
110 13456 69102
111 15269 67218
112 20567 69725
113 12878 88159
114 14032 58101
115 9776 62156
116 14042 66138
117 9776 62156
118 13033 88160
119 12948 72538
120 10663 79058
121 9507 78062
122 13798 69747
123 11335 66289
124 30016 78778
125 12561 60149
126 29564 81006
127 19179 62781
128 10871 76489
129 11320 59190
130 8408 55733
131 11569 59254
132 16809 60612
133 10980 45226
134 13869 50133
135 11869 52873
136 13797 41736
137 15198 40844
138 9710 37229
139 9616 37155
140 16874 19746
141 13802 22470
142 19343 21332
143 14598 21720
144 10984 18074
145 24543 16812
146 10984 18074
147 11274 15910
148 25038 32469
149 23721 17040
150 23197 37546
151 25140 32188
152 28140 25899
153 30493 25939
154 35210 16402
155 36909 16469
156 44461 33072
157 57876 14745
158 80782 17521
159 84434 19070
160 87381 18506
161 82890 33526
162 81650 41578
163 85789 50209
164 81323 52124
165 75619 61950
166 60535 64141
167 58576 63391
168 52533 66669
169 51415 65372
170 50422 72789
171 56178 66567
172 43785 59394
173 34087 46536
174 59524 26812
EOF
