NAME : lhk
TYPE : TSP
DIMENSION : 993
EDGE_WEIGHT_TYPE : EUC_2D
NODE_COORD_SECTION
1 80000 20000
2 6748 96685
3 32679 87043
4 11371 66315
5 11159 26913
6 45403 106285
7 50100 32229
8 34479 38581
9 18400 10345
10 60538 84599
11 10592 49836
12 25315 34226
13 66555 83024
14 23979 105265
15 13417 67685
16 19106 96087
17 33724 88366
18 11258 94977
19 63732 87394
20 50553 26086
21 18717 95168
22 34414 62706
23 29716 91817
24 56471 110005
25 73493 24128
26 88538 83169
27 38429 20738
28 45434 29999
29 31101 96707
30 74530 43469
31 30073 60260
32 19310 82386
33 12132 37117
34 81411 38202
35 29416 66640
36 49573 51554
37 31940 91400
38 18639 49413
39 40872 38124
40 4309 86617
41 57503 83916
42 26912 83815
43 54314 90177
44 69154 42976
45 30341 97063
46 64240 39024
47 10616 30335
48 10396 47341
49 17594 80511
50 35009 49033
51 16954 81555
52 71043 77312
53 68723 96770
54 46034 88832
55 31767 55761
56 49190 31400
57 42166 63082
58 16529 46234
59 21766 78383
60 28131 50506
61 29023 78067
62 1134 17200
63 56344 90501
64 50695 36919
65 26237 21993
66 23545 30238
67 52539 42708
68 61355 67561
69 63634 58359
70 47706 45018
71 70937 48339
72 62718 82360
73 41740 93339
74 25958 92999
75 4075 18666
76 -3005 91669
77 26614 86364
78 2945 64233
79 23493 38043
80 26368 63511
81 39726 71627
82 19454 66855
83 39546 80930
84 80426 77428
85 54778 65937
86 59727 58911
87 2522 29827
88 19914 38723
89 24120 80402
90 29550 62314
91 8512 74028
92 61095 68271
93 31363 92048
94 15707 83674
95 55153 80786
96 19238 82449
97 32005 87556
98 23686 69366
99 93686 32609
100 23538 65093
101 4760 48016
102 49424 66921
103 60737 62907
104 63184 -2773
105 34918 73026
106 48769 89942
107 1781 83827
108 88741 63832
109 1216 91889
110 53943 69512
111 75475 67925
112 41334 19048
113 54444 68539
114 11242 81272
115 12708 64686
116 18129 91596
117 -2455 49622
118 64570 47419
119 53393 95360
120 10760 65139
121 41247 91222
122 30544 34720
123 4313 52094
124 9742 43229
125 27973 68607
126 9045 38990
127 60086 80202
128 40946 52655
129 2881 47419
130 33593 90691
131 20320 76069
132 15741 54216
133 19544 71758
134 5046 37523
135 41814 62125
136 77213 104270
137 78178 50305
138 31510 63495
139 14658 90562
140 36079 109511
141 49823 94856
142 37261 94097
143 27594 46257
144 58949 41983
145 42872 74165
146 66043 87169
147 35342 89504
148 35141 51793
149 9882 38342
150 71112 99378
151 30538 93984
152 29158 40067
153 80925 58212
154 667 88944
155 8015 46974
156 43663 48572
157 53653 91560
158 27 50741
159 68376 86120
160 76750 80878
161 31834 35390
162 46079 60752
163 24258 69574
164 39766 64668
165 56592 29996
166 37664 90194
167 5333 57460
168 31274 81781
169 19800 76845
170 8348 86673
171 91844 54438
172 38757 69084
173 38917 92756
174 55338 62162
175 21100 41141
176 28316 66852
177 55785 5468
178 58243 93143
179 3499 72403
180 48082 73952
181 36881 47102
182 41599 92489
183 23771 48702
184 19425 90754
185 15358 72347
186 58180 93134
187 50007 53522
188 -3048 12830
189 59289 55398
190 40675 79334
191 58173 56396
192 36734 35849
193 13405 62748
194 46897 86665
195 47534 42426
196 72121 38960
197 10964 58732
198 55268 45190
199 78487 56386
200 14426 90058
201 11208 89347
202 74966 65357
203 57141 99567
204 4466 81808
205 83757 75476
206 34712 32407
207 47368 88716
208 -9079 76305
209 47412 67336
210 48441 29898
211 34384 47676
212 10323 6498
213 13977 49362
214 8342 97019
215 3820 54743
216 36903 83233
217 56960 73277
218 59771 43941
219 9790 54088
220 4828 70648
221 21230 76666
222 26965 27947
223 8688 49808
224 41180 80472
225 9561 76982
226 37466 67672
227 36800 76044
228 20303 103813
229 16798 48565
230 57814 79247
231 35979 90166
232 33006 90813
233 70244 44828
234 16989 52991
235 9020 68771
236 53103 60917
237 9892 95684
238 37974 55198
239 65224 65613
240 47166 93439
241 6628 78178
242 42649 89081
243 86245 51579
244 99132 14924
245 14501 75493
246 60144 79884
247 24263 7806
248 14746 92109
249 47107 79277
250 19284 94707
251 44266 22350
252 62495 92829
253 29791 72117
254 35455 82911
255 21857 15776
256 6342 70998
257 33570 84743
258 35545 38721
259 516 25499
260 45053 85728
261 81127 2133
262 43698 18919
263 52770 45491
264 15075 87430
265 35126 65711
266 42760 98131
267 26014 72840
268 29682 54260
269 9090 30845
270 31403 51426
271 34647 73209
272 36104 101389
273 12054 58104
274 60496 97884
275 70309 44225
276 27288 70466
277 57258 40090
278 -2358 71451
279 34142 27725
280 16599 53344
281 51959 82203
282 34738 52577
283 50220 62559
284 5979 48554
285 29534 23579
286 65867 85438
287 66639 59935
288 30713 6980
289 15527 93339
290 39259 32612
291 66498 70264
292 36215 58817
293 37975 82214
294 59892 58163
295 43018 80015
296 67552 15067
297 31797 86344
298 64086 92261
299 8146 72741
300 988 27328
301 1445 80701
302 1137 81702
303 30966 53905
304 16245 49623
305 12096 93450
306 46073 91246
307 24367 97850
308 27977 30835
309 35206 65737
310 43333 94935
311 43214 26963
312 96046 65979
313 -957 42041
314 52911 84883
315 62855 45185
316 58119 72371
317 3668 85897
318 59640 76953
319 63974 93523
320 48489 86289
321 48519 91618
322 8714 78247
323 85835 102792
324 61172 46131
325 17260 54400
326 10149 82265
327 8270 72390
328 26176 79178
329 -7193 36306
330 8709 65776
331 7099 37374
332 6671 21436
333 80152 72150
334 25771 68186
335 78131 61655
336 59088 86471
337 5947 60118
338 41192 18060
339 10801 70687
340 19084 77850
341 55934 72906
342 10931 49844
343 48956 56691
344 45481 90891
345 49561 107255
346 96356 8810
347 9024 81408
348 5072 61001
349 5637 8146
350 19437 67086
351 45294 78217
352 33364 8460
353 20877 49201
354 76130 100232
355 28641 35333
356 56652 35980
357 41205 34093
358 70094 41669
359 66129 36892
360 27868 65965
361 16732 82269
362 17647 73602
363 14140 24010
364 36801 7486
365 2005 90219
366 34134 58703
367 13462 23285
368 59046 88024
369 17725 80958
370 52952 76823
371 34735 58231
372 -6 69068
373 97380 84151
374 12606 50871
375 14438 78177
376 45013 94212
377 750 57620
378 63697 45328
379 62733 82442
380 27798 26359
381 -1056 99315
382 518 67763
383 23004 60085
384 80134 67695
385 7340 40167
386 82344 63822
387 10629 91306
388 88876 52510
389 26883 40295
390 41115 90953
391 23821 74904
392 17233 48772
393 29253 87289
394 64475 68282
395 37721 77669
396 56839 88676
397 56290 49591
398 28515 46027
399 13945 62132
400 13443 82697
401 14985 78042
402 -3945 88366
403 15248 21759
404 24979 43389
405 38299 71923
406 5299 87569
407 45454 84616
408 33152 6587
409 53581 85613
410 20600 89753
411 45425 70464
412 16506 69630
413 9851 11205
414 33586 47331
415 27495 43679
416 52934 87626
417 44394 87588
418 72932 81130
419 29919 90713
420 49569 22799
421 74747 59714
422 35697 33694
423 15912 61918
424 8348 31556
425 27860 85458
426 75170 49479
427 3209 82209
428 -319 69519
429 37834 84210
430 26877 74947
431 22449 92567
432 12676 85146
433 55261 73400
434 1364 81826
435 58476 98700
436 17756 95820
437 4732 85076
438 41544 82316
439 36930 46627
440 26674 19187
441 59619 71246
442 19810 86680
443 9520 92196
444 10318 74931
445 10086 89801
446 11544 67370
447 1553 82028
448 -3315 89357
449 37234 102770
450 42472 98601
451 84963 76928
452 20075 59751
453 44050 42082
454 45028 60414
455 33329 82019
456 6012 22242
457 19950 96165
458 5356 71461
459 55874 30892
460 44560 66282
461 69489 80885
462 40452 50323
463 24827 98968
464 5611 53185
465 64908 92523
466 68940 83904
467 76206 40930
468 36306 30401
469 45306 63157
470 16997 81072
471 38120 88384
472 39910 57369
473 41536 45933
474 77944 90562
475 19158 24785
476 17172 49790
477 11520 44967
478 68932 83018
479 71127 58953
480 18866 63220
481 42791 42997
482 62655 76474
483 11160 74717
484 96002 9320
485 44398 80795
486 56198 56877
487 20888 32653
488 10251 74197
489 20167 5892
490 3624 52382
491 25484 85681
492 21703 99691
493 50530 49746
494 32088 64304
495 76712 93875
496 11273 78823
497 10837 38960
498 102015 66312
499 39422 60935
500 2558 37139
501 4137 73417
502 26874 66864
503 6865 77995
504 4098 69831
505 72589 14196
506 9657 41402
507 86063 58511
508 23069 55860
509 39920 52245
510 63711 78771
511 26898 59667
512 46842 100634
513 39760 55545
514 54342 67207
515 5820 27578
516 50562 63836
517 51637 95456
518 5641 71550
519 43978 16052
520 57124 48341
521 89899 34163
522 13946 93724
523 39091 59564
524 45057 66494
525 20827 60509
526 33805 44890
527 31802 77002
528 13452 49468
529 92349 71600
530 29591 30882
531 47844 80240
532 -4840 58338
533 47623 101380
534 39450 58700
535 11903 49217
536 24149 42704
537 43186 101127
538 28216 76942
539 63173 56084
540 53845 86369
541 32501 72967
542 44990 103627
543 13064 56036
544 23437 42413
545 65182 100077
546 29216 43395
547 6771 82122
548 1501 86128
549 32304 87075
550 25622 34196
551 23111 82744
552 10529 72283
553 17983 71992
554 73076 48341
555 1856 86029
556 53707 29573
557 16800 72861
558 13570 98190
559 51692 54960
560 50151 89044
561 10214 72863
562 42499 79811
563 51182 76430
564 56938 78368
565 36581 84641
566 11483 58344
567 40509 42031
568 58543 79130
569 9025 87813
570 29331 91718
571 -8103 82278
572 20894 62915
573 -392 21617
574 35659 26372
575 28323 62901
576 57924 82252
577 40035 61174
578 45923 56733
579 12487 84768
580 72061 61311
581 76749 105773
582 64063 14542
583 50696 63401
584 72344 54150
585 64180 96724
586 9700 95010
587 36076 40328
588 25850 67726
589 11496 25573
590 10891 59579
591 81339 27231
592 31694 70779
593 77339 51951
594 19389 87758
595 54491 38358
596 67888 62452
597 43649 68859
598 54650 49708
599 64546 27829
600 25274 64041
601 19334 71489
602 23685 74302
603 21799 27720
604 38468 45809
605 27818 76609
606 54531 72870
607 59337 43837
608 -116 72717
609 14536 75724
610 81454 42839
611 27109 94794
612 35512 103704
613 17982 45555
614 32286 100123
615 37279 77732
616 2554 83598
617 20683 44401
618 52944 66714
619 60548 93524
620 30745 40343
621 61913 98793
622 48209 54173
623 59896 85756
624 48327 58290
625 51838 93544
626 44846 59078
627 23360 21337
628 95823 18717
629 5987 87516
630 4912 12704
631 17546 70886
632 28494 97706
633 48703 81236
634 29790 48778
635 58155 43443
636 18031 82219
637 49408 82526
638 1415 86878
639 34066 87400
640 5159 74069
641 28253 60562
642 9123 21130
643 45282 79603
644 28799 17345
645 60736 43219
646 27109 60914
647 -2442 11489
648 62140 62613
649 81657 81126
650 36754 82029
651 64490 66281
652 28006 84058
653 15692 53287
654 43054 17131
655 69534 73513
656 22448 41443
657 71700 58509
658 12925 68994
659 32169 78980
660 46978 81620
661 88421 69066
662 24175 29943
663 37979 81391
664 9895 41829
665 27590 47124
666 8616 79490
667 70717 90164
668 5747 72231
669 62568 66938
670 31820 4207
671 78620 37876
672 62901 67882
673 30929 91261
674 14449 32183
675 8599 7062
676 59998 41830
677 40642 62066
678 2601 62537
679 -3443 95078
680 29616 38833
681 10125 68279
682 53712 26529
683 13237 18975
684 37583 62345
685 84062 60120
686 97812 78764
687 4510 68290
688 31043 40897
689 17715 51085
690 38248 69388
691 57688 89533
692 15814 55770
693 43746 39306
694 4401 86614
695 4412 62914
696 24737 84456
697 28011 83406
698 19955 79890
699 23068 49537
700 16676 88231
701 13412 36439
702 8073 69281
703 22224 12649
704 6598 60698
705 35494 15769
706 27783 46531
707 32451 46176
708 34434 92120
709 -843 48563
710 40231 27919
711 9724 26008
712 2947 98981
713 18801 94175
714 46300 91201
715 21629 92361
716 40016 67023
717 53429 38714
718 -2139 60744
719 17720 90602
720 10473 90243
721 26953 67716
722 72659 10144
723 6068 17396
724 23345 36810
725 45410 78698
726 86492 95337
727 18379 82791
728 65287 79284
729 4414 78758
730 36002 61109
731 23104 75478
732 8492 42102
733 33741 67605
734 32133 62097
735 -3203 69384
736 25231 59594
737 -1038 87466
738 54754 98660
739 39579 95394
740 22481 57532
741 83209 79134
742 7404 31547
743 80891 78031
744 52908 63874
745 74709 79443
746 65493 41145
747 48484 95478
748 -2113 66092
749 30439 43867
750 9015 36635
751 16300 103902
752 52243 32288
753 30172 101912
754 27443 98124
755 61989 97207
756 37631 77111
757 26548 55509
758 27949 71540
759 10262 54410
760 6191 92554
761 4695 58209
762 19886 89745
763 68851 61157
764 34893 93617
765 19664 61969
766 42869 55100
767 35952 92960
768 71326 63127
769 26538 96901
770 49173 73957
771 7525 41249
772 21832 52714
773 21703 67452
774 36634 80433
775 47802 82241
776 60981 79474
777 24095 97109
778 68060 11852
779 36426 50474
780 44408 66428
781 7978 80691
782 53412 28992
783 52422 78453
784 31716 40116
785 3868 68274
786 55485 26863
787 37572 86369
788 32900 27966
789 32172 71099
790 16065 78088
791 45628 29117
792 59291 54368
793 7045 91128
794 47123 59035
795 4410 38940
796 37386 95225
797 15502 77237
798 23175 39271
799 44243 53420
800 -25 72732
801 50779 76521
802 61158 70051
803 54964 76818
804 -572 85945
805 41721 66855
806 9958 53268
807 21179 81399
808 43047 92249
809 31482 95118
810 34712 56043
811 58583 61554
812 29907 37968
813 8999 1939
814 60864 89345
815 50863 95601
816 12800 77196
817 59219 86549
818 64988 96094
819 75459 76987
820 57812 14216
821 84585 99601
822 66095 31648
823 35314 24055
824 68379 82559
825 32143 26831
826 10189 77629
827 48539 75355
828 7100 98524
829 58236 25413
830 19063 32019
831 3402 80153
832 66966 23738
833 66093 75869
834 18563 92435
835 40282 28828
836 85561 41820
837 16371 26767
838 69037 78923
839 84250 59850
840 34710 49200
841 43318 91182
842 12496 51461
843 68811 54183
844 47274 45006
845 51875 49887
846 70486 91736
847 29758 60712
848 55697 69329
849 39574 39834
850 1989 60730
851 69241 65528
852 58833 91519
853 81032 73442
854 27642 35082
855 62288 89834
856 39857 74467
857 61697 96046
858 57632 79121
859 11495 58997
860 29020 86380
861 12525 85698
862 55453 88160
863 45551 36234
864 12907 31289
865 82065 85587
866 43058 38812
867 50831 102479
868 73891 67377
869 2675 96227
870 35433 36255
871 49063 31946
872 28282 98412
873 24975 72084
874 54165 22852
875 38607 105084
876 44607 38976
877 33749 48147
878 34335 94218
879 30565 65997
880 14833 71587
881 50352 84744
882 11728 11308
883 58270 102890
884 36070 20133
885 87445 54792
886 28559 82882
887 22218 84658
888 57158 85169
889 31195 70326
890 87712 91182
891 9503 72514
892 23051 51068
893 6447 75047
894 75524 93437
895 41518 78512
896 50984 83878
897 56040 88713
898 15196 69787
899 1129 32180
900 24782 28729
901 71272 73358
902 15572 64373
903 10673 18850
904 28884 55821
905 64523 68334
906 4123 94471
907 62501 45637
908 60800 64472
909 20562 43379
910 18277 51407
911 37968 71845
912 63443 92518
913 38215 61663
914 30671 49031
915 2868 101554
916 23423 23845
917 15222 77061
918 34031 38941
919 23576 83863
920 29428 89935
921 82776 51978
922 53147 77733
923 34535 48816
924 59297 57196
925 18156 65927
926 795 55517
927 63856 50313
928 17815 69678
929 83203 89766
930 38549 49785
931 53076 34559
932 66569 89381
933 78429 51994
934 8831 93845
935 41435 24735
936 52877 32331
937 18895 54710
938 73554 78569
939 26544 58389
940 -2951 54031
941 56043 72729
942 69720 49159
943 68163 45513
944 13335 24451
945 2512 81115
946 54413 50521
947 20174 66636
948 54641 93864
949 14865 68420
950 9289 52781
951 21110 72421
952 88437 40659
953 55196 83358
954 2754 91631
955 30693 78268
956 5352 74568
957 12740 56348
958 37789 55736
959 -3454 43717
960 65263 15619
961 36444 110170
962 48751 90234
963 75207 71263
964 -5654 22967
965 67751 61727
966 19334 58311
967 -3100 65488
968 82331 52415
969 54462 73500
970 2247 97853
971 6528 58457
972 27136 58922
973 23620 56975
974 14049 94609
975 38959 98450
976 72452 66936
977 37085 80921
978 87805 51266
979 52495 50983
980 84734 15212
981 56683 93719
982 28300 55128
983 5347 95908
984 75469 105206
985 69044 84147
986 4263 24520
987 49205 78258
988 66393 82317
989 603 108610
990 36554 42164
991 12516 40421
992 7443 76065
993 58967 103215
EOF
