NAME : lhk
TYPE : TSP
DIMENSION : 993
EDGE_WEIGHT_TYPE : EUC_2D
NODE_COORD_SECTION
1 80000 20000
2 6451 84774
3 32388 91303
4 12532 64841
5 4961 18277
6 45814 98699
7 59244 28119
8 34747 39653
9 27892 8559
10 59078 82524
11 18322 38614
12 30721 41970
13 53953 91433
14 10700 95490
15 -5437 71951
16 20849 95953
17 28958 76745
18 17197 85230
19 74848 81946
20 44627 25665
21 32477 99681
22 42209 67146
23 28839 87465
24 54015 100700
25 56650 17560
26 99408 92098
27 48613 18205
28 53239 27636
29 23682 95366
30 66709 49696
31 30631 69048
32 1434 86824
33 22383 41597
34 84915 35165
35 24901 68817
36 46760 59780
37 26219 95337
38 18488 46421
39 38239 52117
40 11319 98619
41 56264 91811
42 26094 81899
43 59001 98162
44 54847 41204
45 17637 102132
46 57457 38152
47 16024 39628
48 3921 50828
49 18158 80903
50 38595 47378
51 20217 90434
52 66146 83901
53 68124 95752
54 36997 88497
55 31751 69576
56 63437 27459
57 27774 62711
58 12840 54203
59 18153 80176
60 25748 56614
61 19620 75789
62 4376 21757
63 45981 99561
64 53243 42307
65 29022 20686
66 19436 24676
67 44394 48157
68 65658 60018
69 67815 67007
70 52374 44572
71 63895 49470
72 76928 83205
73 46038 99946
74 29842 102182
75 5735 37736
76 -2720 72320
77 26853 85706
78 1322 75832
79 14751 35122
80 20831 59803
81 41475 78985
82 17649 66037
83 44935 89706
84 69868 75836
85 51187 72461
86 54999 56156
87 854 24974
88 19485 43238
89 17963 80784
90 21811 56585
91 -9962 82534
92 42022 79565
93 28171 86546
94 26465 89898
95 55131 72939
96 11581 84411
97 26219 91063
98 9748 60395
99 95181 27122
100 23688 64813
101 9292 49897
102 47073 59034
103 68517 46335
104 71613 10704
105 37614 68699
106 46834 98711
107 6655 96343
108 91260 55251
109 11320 83348
110 53357 69567
111 67841 68359
112 36347 18605
113 53306 73341
114 5636 76309
115 16715 65808
116 13855 102462
117 -4813 50763
118 59075 53374
119 55754 89426
120 18509 66143
121 35196 95879
122 26347 38630
123 9378 49406
124 7549 49549
125 24594 76739
126 24527 36970
127 47989 79328
128 50300 57213
129 1802 46306
130 36812 90823
131 16265 65169
132 12574 65639
133 17756 72224
134 5199 30689
135 44244 73414
136 72086 96028
137 84624 40884
138 29240 62877
139 16186 95897
140 41376 100745
141 58625 81388
142 41995 80540
143 16159 41046
144 68848 45989
145 38027 77023
146 68333 95273
147 39968 90710
148 29703 58146
149 24873 46660
150 66353 96770
151 23707 99942
152 29099 41996
153 74928 67401
154 6296 88957
155 3573 50367
156 45150 48146
157 55296 96948
158 8913 55619
159 76453 96814
160 69239 82015
161 37105 29583
162 48629 67906
163 11814 79466
164 41429 68375
165 51731 26782
166 45583 85650
167 -7644 58965
168 36381 77808
169 17998 74603
170 2207 77962
171 90313 55595
172 46422 69916
173 33503 89020
174 63320 69349
175 25665 47397
176 43558 67519
177 68036 3366
178 58113 91495
179 6774 81828
180 61845 83219
181 31454 49798
182 49431 99301
183 13725 50859
184 18337 85504
185 22985 83035
186 57493 86773
187 54117 51723
188 -3765 21368
189 59362 49719
190 42107 71988
191 75824 60820
192 36423 33716
193 14025 66409
194 54642 76608
195 44371 47400
196 78944 50873
197 6613 64240
198 54395 32941
199 79629 60537
200 9587 91045
201 9489 95393
202 76253 67618
203 59653 89122
204 3118 92934
205 85096 63584
206 28762 24994
207 40917 94000
208 4766 77052
209 58356 79443
210 55858 24217
211 47808 49207
212 13223 3587
213 8355 41561
214 4525 97164
215 8126 56974
216 37011 89562
217 53307 67953
218 62368 37381
219 6011 51670
220 14060 56604
221 19014 75741
222 25709 26812
223 639 44167
224 34852 82598
225 -264 67729
226 41255 69929
227 30210 71687
228 24729 94254
229 19736 34825
230 63195 79057
231 28862 83877
232 28980 86467
233 65269 44745
234 23200 55786
235 -3111 57152
236 41344 67684
237 12941 99285
238 46965 54101
239 58775 62411
240 43080 88976
241 2088 79917
242 45825 89674
243 93229 50184
244 99348 13899
245 12179 88079
246 51849 78273
247 28757 16144
248 15554 85515
249 46521 79433
250 12918 84179
251 42984 24505
252 71330 103566
253 31466 73846
254 38360 92290
255 17060 17331
256 3465 66559
257 34083 85419
258 43125 34224
259 -1103 22070
260 52638 90127
261 80850 5228
262 45757 17642
263 59591 55022
264 1619 88793
265 49027 68293
266 46464 101996
267 17701 80204
268 31060 50042
269 22012 31193
270 33934 45571
271 34827 77123
272 28675 103840
273 7725 67964
274 70909 90304
275 72707 45360
276 21508 73905
277 47815 37210
278 6367 68654
279 30508 32183
280 24279 51691
281 53243 80244
282 44361 55861
283 43606 65647
284 11688 30514
285 27499 20413
286 67840 93600
287 49165 60666
288 36734 9364
289 19505 90425
290 46126 26118
291 70737 74008
292 41323 60654
293 35831 79972
294 63308 65501
295 44302 77550
296 66027 23592
297 20865 89582
298 64381 78990
299 -134 78205
300 3164 27754
301 4689 89172
302 6592 89357
303 36715 45345
304 9734 51049
305 6906 84316
306 47438 85782
307 18677 97214
308 22353 33424
309 30245 65245
310 42560 102437
311 34280 23908
312 93655 70982
313 13646 38462
314 51821 88697
315 63864 44843
316 58063 65465
317 4395 81895
318 61683 79179
319 61875 100785
320 47185 87763
321 57779 89415
322 3731 84692
323 85860 91652
324 65435 46877
325 19715 53848
326 8618 84377
327 19952 75993
328 24585 65927
329 -846 37947
330 19378 62871
331 2781 40910
332 7084 30567
333 82622 69111
334 22227 82199
335 84760 53165
336 55881 81075
337 23485 46605
338 37200 19334
339 14032 68211
340 12155 83317
341 59259 74645
342 3939 46837
343 49287 46466
344 43426 91685
345 51524 102198
346 98727 18635
347 17879 79454
348 3950 66548
349 9462 14843
350 22412 54938
351 44863 63323
352 34755 16461
353 16653 60317
354 74317 91952
355 35165 33260
356 60866 37831
357 41588 43057
358 62822 48297
359 60991 38357
360 34663 75200
361 24804 82445
362 15919 66572
363 3104 12801
364 35091 12535
365 12347 82518
366 27152 60715
367 23025 12356
368 56190 89268
369 16815 90786
370 60988 87097
371 30910 60750
372 3542 66910
373 93577 83262
374 6977 42398
375 4536 83415
376 41228 96076
377 1898 54921
378 52146 35473
379 64292 72550
380 41832 28529
381 7482 104661
382 1567 70009
383 27324 62170
384 85820 71604
385 9139 40434
386 86687 75914
387 5662 96141
388 74425 57727
389 32034 38857
390 37564 90198
391 29730 65260
392 26158 46867
393 35946 85222
394 61538 73364
395 27499 90447
396 61648 82126
397 58549 55337
398 27269 45779
399 16680 67827
400 16346 88177
401 11625 62669
402 10137 89711
403 24070 25494
404 29094 46904
405 30597 76895
406 -5165 90264
407 47607 78127
408 33576 22042
409 59846 92278
410 29409 102463
411 36510 55235
412 17636 68627
413 6587 22168
414 29714 57969
415 28461 40353
416 58479 92696
417 49494 93094
418 77891 80157
419 27631 86633
420 45049 19433
421 71995 62106
422 45637 33815
423 22666 56031
424 12088 37495
425 15401 85371
426 68263 42286
427 1003 80683
428 5927 70517
429 20349 91854
430 21911 70090
431 21906 97671
432 22908 84878
433 59996 80349
434 12712 84423
435 53786 92968
436 -853 103464
437 6105 82208
438 38659 85067
439 18725 44476
440 25381 23211
441 60438 65098
442 20886 93341
443 20836 88216
444 25074 79976
445 7557 78893
446 8901 68736
447 10007 87538
448 1394 85832
449 47044 94082
450 38977 95125
451 96602 81767
452 23670 60917
453 48547 39349
454 57606 75457
455 31465 80690
456 9800 26126
457 17573 102996
458 4898 81155
459 58507 41570
460 36808 63143
461 62205 81405
462 47796 53075
463 17029 93673
464 8813 46550
465 61557 106635
466 63720 80599
467 74680 45061
468 37704 31777
469 46967 64231
470 10650 85771
471 31852 84032
472 41679 57894
473 44247 41697
474 88809 84853
475 22388 25859
476 19674 52578
477 19019 49154
478 56993 82690
479 71752 51108
480 18274 73325
481 39973 39553
482 69526 83036
483 7955 63092
484 101065 12627
485 46256 72528
486 64134 65557
487 25672 32462
488 18035 77346
489 25207 5765
490 8729 59315
491 24504 79863
492 12575 105425
493 47475 47653
494 22568 64806
495 77090 92689
496 15469 89133
497 27864 51222
498 85708 52699
499 48496 52056
500 559 41683
501 20145 63726
502 17696 64178
503 21820 74988
504 12190 68836
505 67195 19631
506 13031 53533
507 80878 57423
508 27210 68926
509 22151 49871
510 61663 74430
511 18296 52081
512 53270 96426
513 43000 48933
514 45122 75179
515 -1644 23899
516 61782 62363
517 40793 96583
518 2811 67316
519 32636 8445
520 46894 59265
521 93019 36392
522 26244 94068
523 45105 57324
524 48293 78880
525 15779 71451
526 27356 46423
527 21019 71872
528 2946 53031
529 81211 79800
530 28594 33968
531 44243 89464
532 -6546 57772
533 57268 94328
534 35046 59641
535 11900 47572
536 18469 48078
537 49442 90683
538 22212 73577
539 64812 68859
540 36333 89874
541 42901 72361
542 44184 100996
543 17976 42411
544 25450 40071
545 64532 99808
546 21925 46328
547 7405 92995
548 11706 93808
549 37600 96512
550 21840 38451
551 32271 73912
552 12396 79047
553 19913 65917
554 79039 50669
555 211 79964
556 62154 34375
557 11159 74530
558 11173 81559
559 43383 55967
560 49549 93272
561 13900 78161
562 41129 81817
563 43090 81178
564 38670 86337
565 37125 81715
566 24529 60053
567 41274 52752
568 70199 81430
569 7629 100711
570 38879 93606
571 275 85489
572 33269 70957
573 9741 27237
574 41318 7990
575 26028 72089
576 56180 86926
577 34488 59940
578 54485 57740
579 23692 76991
580 83632 68055
581 66516 93184
582 63901 16265
583 52281 77360
584 69059 50302
585 56218 96646
586 2420 87530
587 38629 32173
588 35987 63605
589 14055 10084
590 6729 64943
591 90256 33087
592 27065 61342
593 86788 42501
594 24825 105031
595 59609 38026
596 73373 56098
597 33384 72293
598 40533 57301
599 58637 17101
600 22045 63069
601 14534 70134
602 23845 70339
603 31621 25381
604 23266 47867
605 30583 80178
606 62702 71578
607 61289 52934
608 -18 61899
609 24666 82563
610 80628 44854
611 25504 93464
612 26596 103682
613 26900 45981
614 36635 101739
615 37240 74319
616 2979 81144
617 15459 41470
618 60220 74176
619 63680 95286
620 25231 47261
621 65389 97094
622 33521 58682
623 65269 98280
624 58617 55379
625 62338 95824
626 51799 59526
627 31471 21562
628 89719 26031
629 5550 85026
630 8084 8598
631 11997 66000
632 30077 106765
633 52135 73341
634 21322 51138
635 56007 43068
636 22692 71568
637 57713 81056
638 10690 93932
639 36289 84589
640 6075 66482
641 33486 61819
642 18921 25193
643 44021 81203
644 25166 11662
645 70106 51538
646 40746 68449
647 9128 16620
648 60023 61766
649 78367 80750
650 43267 84564
651 70617 52643
652 26365 89453
653 9750 46188
654 43148 15091
655 64267 65949
656 23360 36650
657 69406 59564
658 13729 78974
659 18462 72921
660 47913 78507
661 92414 68596
662 12700 14666
663 37676 83412
664 18403 43123
665 32281 32751
666 6932 60360
667 73961 90923
668 9359 73140
669 57857 68425
670 29118 9875
671 65541 45528
672 61406 79642
673 31027 88824
674 7534 24219
675 -2629 13649
676 62911 41370
677 45658 60510
678 15122 57815
679 2211 88045
680 29760 36598
681 12065 78021
682 58436 33303
683 17713 11417
684 36159 71115
685 86800 68577
686 91142 91225
687 848 70545
688 32571 40271
689 28229 54371
690 32082 78263
691 45989 93806
692 17159 50410
693 39265 39704
694 9982 100309
695 1628 77252
696 23721 83745
697 18135 86867
698 23422 79663
699 14838 62014
700 21168 89738
701 14751 42306
702 29036 72189
703 26690 30819
704 10186 62122
705 31935 11450
706 20780 46692
707 27412 35546
708 25911 88141
709 -7317 56537
710 27060 19703
711 4018 26767
712 16439 104803
713 16549 82491
714 38658 96880
715 21830 99369
716 42353 68455
717 49779 39044
718 2908 67146
719 9145 87302
720 4235 79050
721 32113 63287
722 70913 8973
723 3435 7712
724 26528 52849
725 42372 79839
726 84720 98981
727 15156 71630
728 68731 75734
729 14275 77947
730 27200 65859
731 25310 84740
732 4401 40900
733 34030 58068
734 24348 67402
735 3506 65865
736 24176 60415
737 9943 88431
738 53500 88255
739 35087 94239
740 4559 67820
741 92491 82056
742 15789 24407
743 82293 76657
744 50481 62982
745 71814 75073
746 76750 42525
747 49773 101454
748 17184 64618
749 29159 47113
750 3060 47454
751 9552 93419
752 59385 30881
753 40538 109843
754 25683 92391
755 57909 89704
756 42193 79515
757 33356 60081
758 27075 86038
759 16692 45072
760 -8554 80268
761 10680 61003
762 19937 93478
763 59701 69418
764 42372 89207
765 9858 52947
766 42901 66763
767 35778 98223
768 67215 56077
769 21998 97434
770 54748 78202
771 10042 36974
772 14918 51937
773 18303 58634
774 32845 86265
775 44789 83474
776 62069 78747
777 15912 101533
778 57377 23047
779 40042 48782
780 50330 71259
781 12925 91124
782 64216 31177
783 58702 81973
784 41190 43553
785 -105 66622
786 48727 25705
787 24039 98320
788 23658 26700
789 29037 61343
790 13893 75238
791 42608 40812
792 56393 65056
793 10078 76711
794 52948 54902
795 -7339 32471
796 31571 82729
797 14458 75803
798 16003 55254
799 48173 61705
800 14062 70061
801 63074 68663
802 56428 72971
803 52613 76853
804 1206 86457
805 40337 56292
806 8827 54936
807 37685 76428
808 35904 79657
809 31666 99821
810 42172 55357
811 64399 61350
812 33967 40524
813 5650 5372
814 72263 89261
815 53662 89687
816 5671 80687
817 59274 85116
818 63642 90435
819 63277 78508
820 55467 31747
821 82329 104315
822 61685 27250
823 38226 19855
824 69446 83966
825 26822 26046
826 14882 77758
827 53638 90504
828 2536 101604
829 58211 33857
830 32905 33216
831 -3589 77696
832 64215 25977
833 65111 73059
834 17572 93017
835 32080 21920
836 82081 35152
837 21946 30834
838 66423 65462
839 77777 50891
840 32712 55073
841 37851 83646
842 13082 45054
843 55643 56179
844 57384 47425
845 56933 41445
846 68034 90276
847 21764 61890
848 63895 82629
849 46949 44987
850 -4880 46257
851 73335 52315
852 59507 95754
853 83667 67030
854 41952 33017
855 65125 91662
856 48859 69291
857 62318 101325
858 52439 77219
859 17409 61353
860 27057 86951
861 1103 79623
862 56360 82344
863 41007 42790
864 5449 40663
865 66100 79317
866 49486 22845
867 45469 104118
868 71788 80971
869 3984 91369
870 29949 34377
871 51035 44753
872 13044 87794
873 23033 83843
874 48294 29420
875 43767 100385
876 57561 45832
877 34602 48102
878 47492 91798
879 37184 76588
880 5640 66636
881 49502 76836
882 12549 6206
883 51663 101321
884 46239 19121
885 96741 50031
886 30468 87168
887 18762 77886
888 58751 85111
889 22797 78741
890 96892 99682
891 -3197 76548
892 39153 45996
893 3265 81204
894 79727 88622
895 42546 67811
896 50835 71441
897 62665 100018
898 19980 66135
899 7132 25543
900 27042 21301
901 80212 61369
902 29493 61720
903 23687 29903
904 25405 54118
905 59463 82391
906 7362 82868
907 51417 42920
908 56011 53817
909 18391 46980
910 5667 42723
911 31497 66152
912 52044 99520
913 32597 55110
914 21543 52928
915 1607 94709
916 24766 25293
917 15947 92504
918 45331 37181
919 36941 88573
920 33039 84913
921 69663 56674
922 53666 74153
923 36324 55142
924 49909 49783
925 20600 69251
926 7082 53483
927 64509 47984
928 26801 73990
929 86468 94423
930 39069 57410
931 59299 41168
932 56081 87264
933 86006 53464
934 18621 93932
935 43538 28759
936 47154 25477
937 8401 49585
938 69759 81454
939 23027 57662
940 2089 65288
941 49414 86023
942 69406 47347
943 76055 63561
944 18686 29419
945 -7341 81342
946 41700 48534
947 20699 76438
948 52767 85724
949 16558 70059
950 15561 42774
951 27314 72669
952 86800 50812
953 46875 87451
954 4334 94018
955 30076 81050
956 21417 80629
957 21048 55577
958 28844 59628
959 -3164 40719
960 56654 24017
961 30325 100228
962 38587 97701
963 82262 70589
964 12715 22404
965 50855 68366
966 26915 58532
967 2270 68879
968 78050 53311
969 53943 65808
970 1840 95116
971 21563 62956
972 29045 73968
973 15340 44993
974 16329 89078
975 47999 101374
976 74635 66738
977 32787 81870
978 83805 59356
979 55653 41420
980 83841 1343
981 54022 100675
982 11371 54860
983 17026 90120
984 76176 102026
985 67086 84023
986 7905 33880
987 52031 61622
988 59604 74007
989 1422 97673
990 36478 44152
991 23677 45946
992 4968 76122
993 62833 99273
EOF
