NAME : lhk
TYPE : TSP
DIMENSION : 993
EDGE_WEIGHT_TYPE : EUC_2D
NODE_COORD_SECTION
1 80000 20000
2 9143 87834
3 36067 71724
4 5451 75421
5 7115 24881
6 46857 109191
7 57987 22036
8 35215 39629
9 19878 8637
10 50020 81708
11 22140 33336
12 26825 41839
13 65279 85948
14 11693 96007
15 3931 72990
16 19576 97929
17 29258 88916
18 27466 91815
19 68806 77480
20 47704 46495
21 28916 99312
22 33963 68480
23 35738 95320
24 46518 100799
25 65200 19847
26 98730 82700
27 47776 20456
28 50775 40042
29 31325 104318
30 80142 45380
31 39103 48920
32 6743 82221
33 12116 46722
34 89212 36131
35 14882 59060
36 55646 56069
37 16826 87988
38 18952 44448
39 33912 54253
40 9796 91457
41 55752 76780
42 25192 88487
43 68366 87882
44 50818 47251
45 24153 84476
46 67136 30698
47 5618 40282
48 6811 56916
49 19449 83639
50 28562 53150
51 25220 98344
52 59435 74163
53 66417 94992
54 43236 90120
55 38674 60466
56 53506 23253
57 41529 66148
58 -1431 52950
59 21876 84804
60 28393 58798
61 40624 83807
62 4481 16775
63 58684 94177
64 62933 47293
65 30468 20349
66 20863 36192
67 51635 51565
68 69046 61963
69 68718 62575
70 46618 46720
71 60857 60866
72 80575 75031
73 36572 95431
74 24961 89116
75 7983 26990
76 1237 83951
77 27250 89700
78 1037 64533
79 19888 40583
80 24658 52574
81 45688 63576
82 15747 66226
83 36511 84639
84 73333 88994
85 59918 66871
86 48894 49363
87 7395 31408
88 16884 33432
89 21745 78503
90 37748 59485
91 -5226 87175
92 48915 74416
93 37696 92368
94 23551 87804
95 50038 64344
96 10398 86654
97 32921 90718
98 10266 70314
99 96223 26384
100 32667 76174
101 5441 61690
102 48653 55605
103 65773 59012
104 73369 10379
105 37493 52859
106 41656 88859
107 3429 94108
108 93269 63444
109 510 84977
110 51416 72351
111 77276 64144
112 30426 26484
113 55581 68771
114 24382 66747
115 2749 64744
116 21119 102537
117 5928 41948
118 63588 50832
119 61659 88226
120 13214 71876
121 29365 82807
122 28051 39584
123 -272 66868
124 12962 44421
125 30552 77918
126 20568 41767
127 59936 81369
128 36974 59217
129 -1642 46156
130 47636 92632
131 21891 61107
132 3025 64598
133 25264 63694
134 8998 26649
135 43225 69852
136 72884 102999
137 83415 51063
138 31200 63171
139 7292 92099
140 41880 109365
141 51246 83630
142 35513 88858
143 21133 47912
144 75322 42161
145 36299 68331
146 67084 88101
147 29603 92275
148 33252 45903
149 21038 48221
150 69518 92767
151 29790 84209
152 32652 33285
153 78693 63200
154 13090 97170
155 9908 45658
156 42723 45543
157 47915 95054
158 1542 44859
159 75476 97926
160 83596 87782
161 44465 25349
162 52703 62803
163 11948 69229
164 37064 62608
165 48840 34222
166 42835 88868
167 2420 49656
168 24426 88612
169 13676 73480
170 3087 84357
171 95683 48427
172 43084 67496
173 33080 88377
174 59975 67677
175 16260 49502
176 38464 67016
177 74670 8449
178 63012 92005
179 11402 72225
180 49842 81621
181 39603 47034
182 32831 98731
183 16477 46015
184 18810 92948
185 21540 76127
186 64344 86927
187 48821 59265
188 7433 16018
189 50600 54147
190 36172 79097
191 70063 61113
192 39536 33423
193 13453 60944
194 36087 82384
195 44530 44343
196 71790 48507
197 18708 60810
198 58196 34282
199 85771 51037
200 8911 83004
201 6650 92925
202 82010 70026
203 58877 87585
204 5627 81671
205 92721 80487
206 32786 34592
207 42899 92631
208 11247 74544
209 50384 64451
210 49642 27676
211 40011 49330
212 12502 14011
213 3734 43387
214 -1421 89433
215 1001 45760
216 38990 82228
217 52622 56881
218 58460 47768
219 3977 54508
220 14182 72470
221 13155 69925
222 28544 36114
223 8983 46325
224 31266 81634
225 997 74329
226 37045 69979
227 41396 71131
228 27010 92768
229 17248 35138
230 57445 80244
231 31961 96763
232 36886 89263
233 71921 40287
234 13058 54506
235 2539 60617
236 46402 72362
237 11515 96973
238 42939 49895
239 63909 64196
240 45030 94272
241 3140 85587
242 32837 86553
243 93143 57551
244 89155 21276
245 17116 85267
246 54459 96590
247 31233 8709
248 10977 98189
249 42391 74224
250 13500 88469
251 48403 27174
252 64108 90478
253 33808 69016
254 19708 91085
255 22568 19431
256 -1419 66693
257 33820 84832
258 35983 34554
259 10741 28578
260 55479 85798
261 84693 8812
262 36915 35004
263 62020 53654
264 4798 84819
265 42689 55626
266 37856 99959
267 31374 70197
268 27312 59378
269 6551 24246
270 31720 50594
271 36114 77227
272 28178 96260
273 17853 66763
274 68384 84560
275 82668 31809
276 14803 69512
277 39790 53141
278 6264 71073
279 29104 25449
280 20938 45162
281 64439 80841
282 55395 61676
283 53021 66790
284 10495 37131
285 21971 20868
286 72359 94938
287 58267 55970
288 39474 15390
289 15782 81763
290 55636 22258
291 66820 80028
292 40409 75169
293 41195 88854
294 58621 66265
295 51633 86285
296 62558 19240
297 32409 71301
298 62868 94526
299 5636 78778
300 9132 33315
301 8232 82037
302 259 94996
303 25234 48810
304 7610 53190
305 5486 93406
306 48298 85764
307 30036 95524
308 22364 26642
309 27990 72285
310 36399 97672
311 38719 17078
312 94519 75471
313 7620 41269
314 60666 95669
315 63405 42352
316 57102 75053
317 12593 84616
318 62419 90510
319 70020 93699
320 50890 90802
321 43469 87769
322 -2232 74677
323 80708 87295
324 67510 38859
325 33477 51886
326 15423 89984
327 18036 79751
328 30079 58760
329 9162 38138
330 28280 66133
331 306 43842
332 -949 26306
333 79846 70659
334 33904 79311
335 76351 70424
336 56866 77938
337 24566 47759
338 35389 17020
339 8499 72866
340 25710 79379
341 62168 63561
342 6219 53803
343 39987 53127
344 41017 87861
345 53742 100358
346 97953 13041
347 14678 83707
348 -156 56409
349 8521 24772
350 28208 62139
351 35575 83257
352 38225 5678
353 19391 51273
354 67953 101509
355 13436 25871
356 62108 33776
357 40870 40413
358 52115 41789
359 55706 37008
360 31738 63935
361 21356 87129
362 17274 64160
363 4348 15441
364 34139 13645
365 12602 81312
366 41031 63785
367 11796 16420
368 54040 97036
369 18951 84367
370 49871 77919
371 38394 53394
372 381 66884
373 95350 86248
374 3670 54084
375 7361 82300
376 43972 99274
377 8322 66676
378 62356 31982
379 63491 83761
380 33896 16960
381 -2680 100398
382 -7109 67717
383 23226 59201
384 75718 63895
385 8556 43879
386 76478 67645
387 15492 91778
388 74696 49426
389 27700 43770
390 39860 98311
391 28804 65475
392 21614 48394
393 34856 90386
394 66265 66527
395 41990 88208
396 53695 89223
397 52016 62804
398 25410 36936
399 11683 68347
400 10879 87217
401 12527 82651
402 9427 90832
403 14857 22976
404 22908 46216
405 40863 67974
406 4919 96538
407 47103 86104
408 32177 8775
409 43805 96070
410 24787 97097
411 32149 66296
412 18508 65255
413 6474 16965
414 34756 41926
415 28689 39686
416 51999 85998
417 43796 85309
418 74707 79110
419 25065 85728
420 50891 24069
421 72336 52381
422 43942 36789
423 21050 52728
424 15933 36762
425 18730 81019
426 67940 55484
427 -8081 81309
428 9515 68600
429 36658 79312
430 14197 74518
431 25248 98066
432 23737 81385
433 47551 66992
434 -5091 83346
435 43631 100144
436 9476 108651
437 9503 81259
438 39313 87990
439 26144 41937
440 21603 21547
441 49973 74125
442 24571 94686
443 7130 93679
444 18328 75508
445 4609 77944
446 2607 71551
447 10896 96858
448 9831 80193
449 47932 93196
450 40505 94017
451 91912 73720
452 25177 57978
453 39278 53497
454 45752 57163
455 29951 69852
456 3416 22781
457 17463 88654
458 7199 82638
459 53635 34592
460 38523 65892
461 66934 75955
462 37970 44489
463 16818 104822
464 9858 47995
465 65829 90264
466 58944 86773
467 65156 38987
468 38788 29292
469 46446 64640
470 18019 81354
471 38297 90339
472 43868 66671
473 53878 50001
474 94357 84926
475 18719 26754
476 22659 41614
477 10655 49508
478 71748 96351
479 67198 69263
480 15907 85962
481 38966 39357
482 70212 80291
483 9977 71327
484 96828 4827
485 42330 81333
486 69691 47175
487 25416 32418
488 13014 75695
489 17314 11053
490 11118 48575
491 23302 89135
492 27894 102435
493 41935 56886
494 28384 53276
495 73215 83273
496 13606 97827
497 25672 49997
498 87303 62381
499 49629 50929
500 398 41602
501 20125 66113
502 19827 71967
503 15699 71960
504 8895 64112
505 58388 20603
506 11491 53691
507 87885 58542
508 27349 65718
509 29951 46003
510 52424 74705
511 27085 55805
512 49095 99003
513 50206 42934
514 46698 71010
515 -5444 34987
516 50026 62541
517 41283 91518
518 4571 70996
519 41324 7899
520 50841 52269
521 86102 37291
522 23287 99284
523 37178 48873
524 46419 61069
525 22021 71463
526 27367 46505
527 33202 64981
528 -2457 45969
529 83625 70591
530 31917 32974
531 48474 85263
532 6102 57037
533 48803 95997
534 38906 48764
535 17749 53262
536 29715 40297
537 48197 90497
538 20320 75102
539 61776 57372
540 35026 92185
541 41998 77079
542 49379 99720
543 21932 49165
544 27484 47200
545 72547 100785
546 30405 65750
547 5485 82615
548 4500 88944
549 38555 89094
550 30375 31970
551 29744 70140
552 17425 84674
553 20377 68044
554 68126 41500
555 2448 69217
556 47074 29573
557 5352 80649
558 8408 85745
559 45439 64702
560 37241 104393
561 22994 80032
562 48503 88613
563 50821 77963
564 45850 73601
565 47220 81849
566 12941 60500
567 39373 42032
568 56544 85353
569 867 88989
570 42100 104481
571 1606 77521
572 32573 76330
573 3923 23058
574 38222 11991
575 28844 82573
576 58077 78290
577 39675 69505
578 42534 59653
579 26148 87965
580 69895 74464
581 77223 102509
582 61132 14492
583 44073 80002
584 77214 48531
585 51152 105161
586 9339 87630
587 49163 30883
588 26087 78507
589 7003 15001
590 11946 60546
591 88945 37820
592 34220 75913
593 80092 49588
594 19369 88187
595 65176 35387
596 72829 73105
597 38583 66867
598 50250 53315
599 61200 14983
600 28626 60616
601 15710 81423
602 19858 62078
603 23622 28950
604 31874 53154
605 34578 73686
606 61551 75449
607 64424 43002
608 -562 75375
609 33219 80892
610 76230 43255
611 32623 90854
612 30527 92202
613 18429 30638
614 31970 100227
615 39039 77959
616 8790 70407
617 12373 41575
618 53161 67163
619 60814 97211
620 33686 51395
621 69565 88104
622 39475 58390
623 67576 90078
624 60628 59803
625 50749 102495
626 55188 60872
627 37617 17104
628 93748 18299
629 5659 88610
630 9785 18042
631 7864 69689
632 22005 91798
633 49877 73178
634 24747 53673
635 60275 28931
636 23008 73951
637 52663 82374
638 11620 87518
639 26405 89690
640 -8429 72877
641 27773 57909
642 13303 23743
643 45528 81480
644 20691 26069
645 63637 47576
646 30345 66131
647 2780 15962
648 63570 59582
649 74354 89677
650 42598 87511
651 68609 70276
652 23648 94822
653 9208 44897
654 45724 17518
655 69529 75074
656 23041 43576
657 72825 58399
658 16803 78648
659 18827 70749
660 51967 82444
661 94125 75610
662 11805 20747
663 35498 65833
664 10503 45842
665 27432 38198
666 9788 73880
667 78226 93536
668 -4059 70982
669 69631 66919
670 29472 9450
671 69562 42345
672 49716 79086
673 36380 87462
674 21372 21492
675 14731 8399
676 67481 44689
677 44857 63813
678 14008 53561
679 -3433 94649
680 35471 40609
681 12965 63042
682 51232 31193
683 2662 13212
684 50659 65876
685 94441 56380
686 89496 88256
687 15938 70365
688 23769 37682
689 28345 58582
690 34236 72878
691 50775 79196
692 15649 57685
693 36931 39645
694 5585 94544
695 5762 63279
696 22933 86924
697 24804 99375
698 25731 89715
699 18881 47421
700 12092 87647
701 15918 35379
702 27999 80245
703 29267 24661
704 15492 56407
705 43059 16320
706 14861 64477
707 40147 44297
708 38399 83553
709 9648 54148
710 30004 25358
711 2902 33705
712 14739 90258
713 24369 85624
714 50976 96803
715 22889 100021
716 34430 68118
717 50305 41492
718 -2409 65237
719 5718 76541
720 776 81424
721 25525 63411
722 66260 10007
723 1779 8284
724 30998 35136
725 37620 73775
726 80624 95581
727 17809 76969
728 60370 80198
729 -1888 75019
730 28593 61434
731 23374 81007
732 -904 44830
733 53400 60449
734 26278 59790
735 2098 61721
736 13885 63283
737 4032 94104
738 58352 95455
739 37514 91009
740 8268 66230
741 75957 83504
742 21253 18905
743 81813 80729
744 50820 63781
745 69258 78098
746 83608 32634
747 47460 96404
748 8460 50587
749 32665 44587
750 7423 50021
751 11852 90123
752 46327 29517
753 32928 102433
754 20011 93670
755 50950 86577
756 40247 70590
757 29679 58224
758 27699 83867
759 19095 56621
760 6583 77509
761 5370 50283
762 25566 94291
763 56716 69663
764 53308 89402
765 14427 60708
766 36831 62508
767 41814 100201
768 69439 53931
769 26063 111029
770 53285 68683
771 8070 40934
772 21107 42724
773 13004 71716
774 33425 85041
775 50657 93286
776 69954 78795
777 17231 96372
778 59720 15714
779 32337 54711
780 47243 68297
781 12689 84700
782 51456 32543
783 51823 76251
784 26782 46817
785 52 63107
786 47776 32835
787 30194 94020
788 20806 22304
789 26802 61787
790 23172 74328
791 47617 46797
792 63616 63050
793 5639 81418
794 52379 50281
795 7641 22715
796 29831 87858
797 11241 77333
798 20320 40754
799 44049 50509
800 347 66536
801 48012 71101
802 71272 81465
803 49126 77721
804 2899 88914
805 44175 56497
806 -120 47926
807 31123 87300
808 43101 80876
809 33791 102277
810 44204 67575
811 50380 61133
812 31602 40771
813 3832 8662
814 69820 92193
815 40839 96170
816 10393 86571
817 59886 78940
818 61387 97936
819 76574 74368
820 68791 32618
821 75946 97095
822 62179 34689
823 35611 22429
824 64612 95342
825 22844 22003
826 11151 75804
827 47154 73532
828 4925 93165
829 64107 27224
830 27784 39930
831 1804 79450
832 59087 26138
833 58029 79253
834 26085 83320
835 40500 39455
836 83371 44744
837 11892 39168
838 70599 74603
839 74753 57055
840 23966 60502
841 41088 87178
842 6938 42069
843 72886 53522
844 48854 41164
845 50257 34326
846 72828 100711
847 24517 60005
848 53316 77281
849 41694 40598
850 675 54316
851 61860 49127
852 58186 94889
853 76325 73127
854 39498 36348
855 73641 100047
856 40303 61069
857 55003 106583
858 47677 74879
859 21769 46072
860 32950 94336
861 738 72838
862 50540 83490
863 43630 52083
864 13407 32836
865 75302 86857
866 52973 30923
867 36712 98301
868 73453 64380
869 2190 99863
870 31306 33106
871 47385 45777
872 16592 93115
873 35868 71262
874 43150 29926
875 40163 103657
876 55529 51000
877 38404 55396
878 27746 92752
879 29180 75952
880 9449 66606
881 49489 87976
882 11742 9875
883 54779 97572
884 38033 30624
885 90056 49108
886 23349 88735
887 20051 85648
888 55984 83708
889 16795 75166
890 84992 85372
891 2508 77054
892 31943 45757
893 4222 83652
894 84303 100072
895 46773 78730
896 49565 78603
897 58205 98932
898 14941 68466
899 2234 39975
900 22262 35796
901 73500 74762
902 30245 65657
903 19258 14053
904 31983 62758
905 66791 70824
906 8469 85225
907 44307 49367
908 61768 63059
909 25227 51327
910 15667 46866
911 40824 72027
912 54553 89331
913 36087 59830
914 33436 56134
915 5695 91389
916 17225 32314
917 16398 85665
918 39673 43464
919 26677 92073
920 32587 78135
921 82860 46310
922 56340 84512
923 38198 47323
924 49711 56116
925 24148 67303
926 4802 57865
927 62648 42244
928 35392 71030
929 79342 97030
930 33548 50666
931 48219 47220
932 62656 82718
933 78596 54830
934 18649 104438
935 43650 21677
936 45253 30284
937 2447 45946
938 73752 81270
939 18022 63914
940 -1833 55794
941 49526 80882
942 66085 65807
943 66183 57151
944 15050 34019
945 518 88063
946 47020 50084
947 18154 76504
948 56157 84513
949 5055 77166
950 22167 44470
951 18351 79313
952 87318 55749
953 52366 94422
954 7365 86849
955 27364 82502
956 -1964 82052
957 10585 54351
958 32385 50315
959 7907 38026
960 70405 26440
961 33235 110753
962 44427 96362
963 70838 65998
964 8161 13148
965 60794 64050
966 32557 60830
967 1059 66294
968 78958 50075
969 61522 65663
970 7625 99122
971 14494 63856
972 15640 74937
973 10846 60493
974 6588 93576
975 36540 99960
976 73522 69942
977 31002 80877
978 75569 55751
979 63126 46416
980 81145 3812
981 53319 95810
982 25184 48560
983 7153 88498
984 74448 101840
985 61659 91042
986 11659 30877
987 52657 82453
988 60711 77908
989 4024 102035
990 37075 42477
991 3989 36486
992 2659 70213
993 62378 96974
EOF
