NAME : lhk
TYPE : TSP
DIMENSION : 187
EDGE_WEIGHT_TYPE : EUC_2D
NODE_COORD_SECTION
1 80000 20000
2 86268 17591
3 84823 38105
4 82319 43882
5 82581 55610
6 84389 53894
7 83197 53946
8 70736 66482
9 73596 63679
10 74593 78408
11 71975 76721
12 69483 70251
13 80898 78108
14 85381 83345
15 85994 83134
16 64199 70130
17 65214 71582
18 66987 89208
19 54001 82380
20 64199 70130
21 54001 82380
22 40680 64546
23 41505 70426
24 54001 82380
25 49809 84333
26 27167 79322
27 34323 77064
28 46231 88750
29 25169 73164
30 40680 64546
31 48371 74843
32 40680 64546
33 40870 64580
34 51594 67461
35 51502 67157
36 53563 67580
37 49193 63715
38 50616 58949
39 65062 50491
40 58548 69749
41 58221 64066
42 67285 48723
43 61309 53860
44 64199 70130
45 51594 67461
46 55773 76635
47 60090 74321
48 67894 76602
49 67285 48723
50 69727 53895
51 63171 39023
52 67285 48723
53 56235 38479
54 55856 38738
55 55521 38422
56 60952 39037
57 54676 40204
58 67285 48723
59 45281 40747
60 50184 47158
61 51924 50537
62 42342 44736
63 42318 46067
64 35787 55218
65 52011 54187
66 48048 55500
67 46797 57303
68 40316 70974
69 26428 59531
70 26217 64450
71 33964 60436
72 31770 58473
73 33964 60436
74 26844 45310
75 33964 60436
76 26243 44034
77 32558 46521
78 31457 44579
79 23714 40801
80 31594 33629
81 32167 32321
82 24664 19683
83 27947 37882
84 30476 24355
85 28869 36807
86 30573 34820
87 36803 45102
88 36559 76890
89 56201 89395
90 72551 89466
91 71697 89765
92 73291 90663
93 77533 90915
94 54001 82380
95 51463 87083
96 52035 87805
97 53145 87824
98 46695 90423
99 48182 91099
100 32639 89461
101 42696 90100
102 50121 90218
103 43547 88945
104 43419 88802
105 44840 89905
106 32639 89461
107 46695 90423
108 44895 79827
109 32639 89461
110 35248 87341
111 26076 88844
112 32639 89461
113 20056 88532
114 20378 89015
115 20518 88349
116 25169 73164
117 25117 75524
118 32639 89461
119 26790 74104
120 29415 77339
121 20056 88532
122 23551 86995
123 27167 79322
124 19738 87864
125 9313 88969
126 10303 80737
127 25225 69792
128 23226 63674
129 23589 62154
130 28080 53172
131 22676 48599
132 30099 35373
133 27082 70679
134 25666 72109
135 16197 82756
136 10289 88681
137 9372 86163
138 10606 88604
139 7844 87407
140 7217 87577
141 9795 75293
142 9554 81498
143 7902 81688
144 9840 74144
145 12721 70247
146 12597 67168
147 10307 58241
148 9868 73440
149 10566 54700
150 20070 60488
151 17978 58906
152 15614 53655
153 15078 50783
154 14577 50303
155 10626 53880
156 11001 38709
157 10503 55559
158 10736 52384
159 11659 39132
160 11121 47125
161 10074 34581
162 11386 43495
163 12937 23443
164 10060 23057
165 11497 41805
166 12563 35405
167 13385 32266
168 12274 31398
169 25114 19850
170 14004 20312
171 12780 19486
172 8049 19967
173 12518 15174
174 12670 18171
175 17290 16946
176 36433 18611
177 36228 18387
178 37275 16647
179 52446 34613
180 37286 17336
181 59545 29152
182 47490 31758
183 41548 29557
184 55022 25435
185 54907 37711
186 60889 26768
187 62690 16002
EOF
