NAME : lhk
TYPE : TSP
DIMENSION : 993
EDGE_WEIGHT_TYPE : EUC_2D
NODE_COORD_SECTION
1 80000 20000
2 8779 89983
3 29491 84670
4 10566 66051
5 11060 31070
6 47783 104077
7 63703 21195
8 35166 38919
9 26695 16002
10 60074 81520
11 14740 29977
12 33314 33964
13 57450 81403
14 16158 94729
15 4458 75116
16 20658 102926
17 26118 73879
18 16999 91280
19 53352 75856
20 61596 33060
21 25912 96582
22 30763 58935
23 41369 99730
24 45611 94354
25 62802 21667
26 85509 80823
27 42067 20436
28 54689 21447
29 23005 94510
30 72595 39709
31 30053 57541
32 6162 83543
33 14882 38962
34 89086 31019
35 13623 60446
36 59432 58581
37 25329 96995
38 26407 47699
39 34943 38817
40 201 100357
41 57312 84435
42 21323 81693
43 56692 87938
44 64678 33006
45 20077 87726
46 62233 35466
47 -4196 38365
48 7749 41682
49 16994 87053
50 33153 44221
51 13132 93092
52 71275 69455
53 64266 94245
54 33146 88655
55 38490 61783
56 64474 35009
57 32790 75606
58 4006 51733
59 10371 86214
60 22941 48435
61 40118 77751
62 -1424 21364
63 55230 93300
64 49445 46041
65 32193 29003
66 11138 31192
67 40909 45471
68 66078 66185
69 61990 63792
70 45094 52550
71 64661 51582
72 71986 77290
73 45217 89288
74 29552 90373
75 4325 28615
76 -3712 79462
77 25783 86568
78 9067 72039
79 29247 45203
80 24182 62542
81 32977 71297
82 11086 74381
83 45103 82862
84 79655 82427
85 53097 57980
86 64621 53924
87 -2549 30118
88 17324 25687
89 23452 78365
90 30784 57309
91 7511 75812
92 51117 73972
93 40189 97289
94 10013 87118
95 56958 76839
96 13102 86463
97 26041 88099
98 9453 72428
99 89012 29801
100 26648 82489
101 4219 60974
102 48018 58195
103 74513 59767
104 61062 -154
105 48300 58373
106 42303 102352
107 7598 96734
108 81488 51277
109 3128 95958
110 47908 64551
111 77704 60425
112 31316 19556
113 57309 70438
114 20885 61592
115 16691 67983
116 16500 92256
117 -2262 50829
118 59525 60987
119 50547 95993
120 15614 75342
121 26540 94334
122 23764 35046
123 -222 52761
124 7265 43964
125 25823 77985
126 15887 40981
127 54809 86085
128 41963 52079
129 1375 46149
130 35134 82774
131 15203 66235
132 4050 68092
133 22653 66795
134 7752 28828
135 39840 63464
136 82189 101283
137 83523 53367
138 33555 65560
139 6068 88367
140 41651 91622
141 51401 77519
142 29293 91393
143 20848 50302
144 67807 44461
145 39637 68109
146 58371 82171
147 36685 87049
148 31495 62725
149 13738 49851
150 69860 97368
151 30545 92428
152 21404 43303
153 77400 57294
154 9597 86816
155 13095 44463
156 42506 45887
157 55852 98384
158 -5867 50726
159 69111 97515
160 70406 91152
161 39255 24135
162 51908 61360
163 6407 77321
164 51389 70428
165 42583 19047
166 42120 102897
167 4396 56253
168 26763 82487
169 18693 75128
170 1529 82113
171 98727 53817
172 48741 64553
173 45500 90353
174 55721 71217
175 6761 47714
176 39507 63763
177 54342 11276
178 63050 94777
179 4081 80060
180 44768 88370
181 36779 59421
182 45303 104356
183 19223 49529
184 20381 91830
185 16751 74016
186 61001 96170
187 51692 63079
188 -2796 24194
189 47364 61626
190 32392 82789
191 58664 64475
192 34346 35188
193 1326 63569
194 44828 82885
195 42481 55059
196 85782 47234
197 2811 61060
198 59294 42388
199 84215 60374
200 13835 91297
201 7315 92485
202 79975 65081
203 63750 87594
204 12250 72745
205 87964 75570
206 22396 34942
207 41570 91776
208 -4513 76815
209 57020 68821
210 42967 30886
211 42291 49633
212 5817 14403
213 3334 36836
214 5020 100099
215 -1761 44534
216 38576 71621
217 54838 56378
218 56203 42533
219 3485 49845
220 10930 64342
221 17280 73415
222 32895 36967
223 6762 52797
224 26432 75193
225 -7906 69618
226 37361 63778
227 40381 68335
228 16466 99391
229 21206 40861
230 56791 88870
231 36515 90560
232 28466 85389
233 69213 42648
234 12562 54176
235 3192 62318
236 45768 71790
237 17128 100999
238 36603 54926
239 63506 62648
240 43268 85071
241 5209 81476
242 43107 84042
243 87157 55188
244 84174 9731
245 17007 84157
246 56179 93455
247 27723 19070
248 19306 85593
249 45632 79528
250 24311 83098
251 46509 30751
252 71331 93456
253 31973 77176
254 38682 87099
255 26765 24689
256 11974 66212
257 34077 73589
258 46800 31688
259 2288 13177
260 65367 90044
261 95352 3549
262 33700 21494
263 53708 58609
264 2172 88190
265 39477 61849
266 38954 99912
267 24707 73364
268 27966 50654
269 12376 28244
270 32418 48284
271 35758 75834
272 31826 94057
273 16108 58331
274 71785 100325
275 79467 41860
276 13048 64016
277 49990 40426
278 -5324 71454
279 24844 39043
280 16824 55239
281 47893 84976
282 37433 53469
283 44684 64236
284 9387 27585
285 27394 21795
286 75150 92395
287 54837 52910
288 45413 10556
289 19882 85847
290 46565 26181
291 65748 64919
292 41068 63681
293 46042 77296
294 62428 60647
295 44943 82820
296 59622 25394
297 41025 79416
298 56582 86503
299 6828 69624
300 10837 30599
301 890 86098
302 6453 97366
303 29829 48173
304 9330 54334
305 10255 99600
306 51207 93297
307 14696 96999
308 39931 21133
309 38665 67195
310 49027 87271
311 32178 14750
312 97434 73153
313 6303 48286
314 52140 101322
315 61388 36364
316 61217 70824
317 4023 89730
318 51974 87682
319 70566 96571
320 55451 89342
321 48763 84334
322 7525 76895
323 75559 92948
324 63599 34651
325 33903 47740
326 18190 79675
327 8330 74361
328 28604 71489
329 -2091 50775
330 16617 68647
331 2141 41683
332 14861 26581
333 84213 61196
334 19933 67717
335 81880 57388
336 50568 80543
337 15145 56628
338 35649 16281
339 11765 57901
340 19329 76595
341 60702 62583
342 6626 55578
343 43858 42346
344 43670 85369
345 46507 102669
346 89713 22630
347 4983 70235
348 11255 56249
349 12235 18877
350 30808 57829
351 47960 73215
352 28342 6611
353 13618 58987
354 70932 94023
355 34851 31834
356 61310 37158
357 35098 37865
358 64692 41043
359 57468 40480
360 38580 68364
361 18111 83409
362 21719 73048
363 -2076 22072
364 37679 11645
365 1606 85732
366 40070 66047
367 14572 15083
368 47026 84027
369 17782 98976
370 61514 79084
371 38847 51549
372 8890 65185
373 92814 81894
374 10283 46130
375 10453 77192
376 45794 86204
377 10738 66533
378 54841 48932
379 54617 85443
380 32928 18446
381 9725 106368
382 5641 66570
383 15733 55928
384 86430 58348
385 9137 40141
386 82427 71525
387 16840 95672
388 81305 54011
389 31425 34157
390 43035 97704
391 19244 68564
392 15615 50634
393 40750 85524
394 60292 58904
395 35541 96145
396 51839 76873
397 48819 57053
398 27771 41933
399 16095 66379
400 10874 94648
401 22304 75918
402 -2814 88612
403 13492 31814
404 23929 47353
405 41377 69142
406 5213 83495
407 56897 87253
408 35076 16320
409 52995 99808
410 19722 105300
411 39637 55684
412 17985 65583
413 12062 27999
414 32174 38580
415 39217 37164
416 55742 78896
417 47488 84570
418 86763 81525
419 22038 88421
420 41504 20981
421 71288 64649
422 40195 45049
423 26599 57374
424 8265 33276
425 11091 88561
426 77198 50257
427 6174 79320
428 7218 71945
429 37978 82535
430 14120 62779
431 27185 101613
432 20751 80568
433 48587 76829
434 6729 79512
435 53891 88167
436 4413 99451
437 11815 86669
438 38963 80979
439 20699 51022
440 22803 19394
441 62058 73188
442 16607 102830
443 10158 93327
444 26632 73492
445 8027 91477
446 -8258 68035
447 11642 80326
448 1516 94251
449 35537 103535
450 43708 90030
451 95746 78276
452 25794 64267
453 48361 45615
454 58118 65340
455 28337 78806
456 11431 21900
457 20143 99886
458 10456 75855
459 46813 40357
460 40977 74756
461 59131 73043
462 37906 41119
463 16702 93444
464 16748 45670
465 55606 99407
466 61001 85820
467 71603 45955
468 42011 29433
469 48073 67672
470 28121 78105
471 30487 101145
472 37433 58339
473 41432 52418
474 90374 95822
475 21837 24053
476 23946 44124
477 12268 49394
478 68188 79908
479 75275 64714
480 18006 73472
481 40436 39734
482 68218 75897
483 19977 65985
484 88848 9742
485 37591 75890
486 57376 57034
487 29303 39165
488 15029 72201
489 11848 15306
490 5385 53230
491 25559 74398
492 30110 97405
493 50356 49137
494 29729 70136
495 66146 89677
496 24509 84299
497 22833 46397
498 91470 56578
499 47107 49253
500 525 36876
501 14930 73765
502 19914 63420
503 12671 68772
504 11623 74883
505 66136 18737
506 11091 51213
507 83293 55054
508 33678 61440
509 31010 47355
510 63678 69114
511 28388 57929
512 43211 99588
513 40964 47768
514 50392 75309
515 -3501 29279
516 59391 74471
517 47409 89095
518 2990 67531
519 35348 7339
520 54036 58984
521 82723 37898
522 26296 95176
523 42225 59865
524 48638 60211
525 21955 64705
526 26380 44221
527 27297 65740
528 7534 61777
529 80414 73857
530 42148 36221
531 48079 75903
532 5184 60230
533 52374 106026
534 44835 58561
535 12257 49019
536 30145 41108
537 44943 86455
538 35622 69488
539 65047 63194
540 44405 92410
541 41813 73778
542 48411 99016
543 4985 48215
544 24782 41734
545 71777 104630
546 30111 61388
547 14699 84347
548 4606 79453
549 38175 92464
550 30377 40324
551 20619 72131
552 8129 69490
553 22295 62496
554 72143 48402
555 -197 79350
556 53172 27573
557 4137 77191
558 13506 89878
559 47697 68537
560 43608 93758
561 12174 78545
562 41322 81979
563 39999 70743
564 37064 80102
565 40953 78600
566 23357 58689
567 40297 46044
568 68009 84340
569 13523 93900
570 35125 97332
571 5802 85070
572 32994 71124
573 2454 23948
574 35451 13435
575 28300 71741
576 67596 81515
577 35992 55013
578 51009 60871
579 21841 83131
580 82587 67710
581 75129 100568
582 59741 11755
583 55800 76169
584 74790 56743
585 57500 94856
586 2889 98944
587 33236 29388
588 26591 73126
589 14335 22583
590 13247 60279
591 90266 42110
592 33823 62040
593 75775 52998
594 20490 96622
595 56523 52279
596 69141 68445
597 40843 76104
598 50475 56422
599 62575 25041
600 28424 62126
601 18989 73346
602 18072 62400
603 33925 27351
604 30473 54595
605 27209 74523
606 64354 67192
607 64886 37012
608 5703 72239
609 26392 82089
610 72414 42566
611 33444 86957
612 25359 102560
613 29862 41957
614 37206 96195
615 36214 80157
616 4796 76417
617 791 40964
618 61666 70779
619 59053 82229
620 40103 47779
621 76036 98105
622 44341 58664
623 59920 83734
624 44291 49931
625 54807 86918
626 56347 60393
627 31951 23411
628 94904 27410
629 10983 93170
630 9094 9805
631 3814 68454
632 27049 98468
633 51924 84106
634 17850 58489
635 57402 38587
636 22878 69889
637 40736 81213
638 3407 84895
639 41440 79280
640 6315 84514
641 24687 62139
642 16105 21981
643 45715 79415
644 13618 19147
645 61631 51722
646 26322 56032
647 8 5960
648 62379 65056
649 83510 77766
650 38026 69900
651 61724 65585
652 22633 90525
653 6000 53563
654 45504 17714
655 71237 75358
656 24851 32253
657 69951 51416
658 9880 67122
659 21494 72801
660 47224 73813
661 91803 70124
662 17678 16935
663 35555 84811
664 13425 34990
665 28504 40938
666 4211 69009
667 77198 96197
668 4726 64743
669 61221 61047
670 23362 4728
671 79115 45597
672 65595 68734
673 32695 86934
674 13051 14246
675 5798 8622
676 61105 43718
677 54388 69807
678 10544 63986
679 -2232 91184
680 41676 34346
681 13845 69125
682 45263 32552
683 10610 11685
684 40904 64012
685 78893 69937
686 95975 87369
687 2714 73151
688 32412 42925
689 28589 55517
690 32675 74441
691 56058 86307
692 12070 63656
693 41368 34517
694 8823 86171
695 6040 70307
696 25853 79470
697 22130 84134
698 25775 70218
699 17310 50516
700 9320 86724
701 8424 46846
702 23938 74911
703 27514 23848
704 10446 60441
705 40890 25551
706 16267 51312
707 39460 39935
708 31344 100845
709 -7500 57953
710 31244 23240
711 3110 19621
712 15510 91693
713 29278 88113
714 53359 90470
715 24457 90231
716 38995 56823
717 45153 30310
718 2469 68968
719 4425 86912
720 7899 92772
721 32604 70601
722 71771 3821
723 9805 11850
724 18814 34872
725 27741 71087
726 78837 90653
727 14020 75646
728 61451 69262
729 4443 81516
730 31797 50623
731 21808 74730
732 13556 37120
733 41955 60176
734 24198 63417
735 1907 58649
736 13480 58988
737 8001 82630
738 51028 92875
739 36496 98224
740 23697 58578
741 83543 81078
742 -28 15643
743 76867 88188
744 54460 53308
745 68981 65149
746 77075 28796
747 42765 89034
748 4474 55849
749 21962 38480
750 10445 48760
751 16995 91796
752 51462 38018
753 33640 107603
754 19432 84387
755 50393 87102
756 49844 77727
757 28618 56717
758 25447 90321
759 24951 55102
760 1587 76694
761 1868 61331
762 22366 94112
763 51782 58360
764 39628 97386
765 16269 62370
766 40459 62555
767 41708 98369
768 67163 56296
769 16879 108791
770 46990 78052
771 10178 45330
772 16303 46159
773 18504 60424
774 26391 82275
775 56815 102060
776 74195 82785
777 11452 94574
778 60688 14838
779 43629 44853
780 45424 67807
781 16031 82477
782 52180 37675
783 51912 76913
784 30766 46973
785 16051 61883
786 51979 30505
787 25359 92390
788 29474 34502
789 28129 61045
790 26363 79489
791 32832 38879
792 50497 56286
793 -2320 81723
794 45878 58944
795 5526 26491
796 31716 89605
797 10704 79033
798 13337 38444
799 52105 54704
800 2309 57281
801 56249 74699
802 63402 84570
803 48362 71540
804 3314 86785
805 43288 63457
806 4276 56396
807 23807 84041
808 35397 74365
809 35892 97752
810 33726 53702
811 49719 58515
812 29913 30482
813 5584 5675
814 74456 85689
815 49423 86138
816 5711 87121
817 48119 83322
818 65081 95831
819 77933 68193
820 61253 22516
821 87775 95266
822 62295 32001
823 36667 28739
824 68897 84828
825 22624 21694
826 18926 88454
827 49160 70989
828 14340 97504
829 56376 35035
830 20399 36300
831 2649 80766
832 60117 29425
833 56992 71810
834 23571 91290
835 35576 36567
836 76460 43228
837 17392 21096
838 74428 83822
839 84604 59094
840 33944 58643
841 40069 86741
842 9097 48234
843 61979 50316
844 50278 41054
845 48252 30083
846 62937 85195
847 28543 58484
848 63500 69588
849 38515 38842
850 -5183 49521
851 72218 55216
852 51609 96867
853 73631 53465
854 29901 36663
855 63523 89662
856 49401 66075
857 58015 95953
858 50706 76934
859 21552 52044
860 28100 87611
861 4647 71789
862 55527 85971
863 42198 37393
864 10629 40392
865 67798 85016
866 45454 38628
867 46501 97131
868 64143 76709
869 484 95192
870 26897 31930
871 41612 43011
872 20545 99689
873 26418 70098
874 43918 26057
875 45852 100688
876 53833 45156
877 32524 52337
878 37688 94465
879 41193 68710
880 9950 67459
881 48399 88416
882 7800 -3720
883 52304 99887
884 35705 15568
885 87451 58884
886 30190 91871
887 24428 70020
888 59348 95415
889 16287 80702
890 94122 91672
891 7756 77767
892 34449 53868
893 6724 81966
894 86468 98523
895 43675 71430
896 57800 77582
897 51772 90722
898 29765 65111
899 5585 32075
900 22003 15017
901 78959 78297
902 26416 65424
903 24965 17854
904 17798 64791
905 69191 79342
906 7317 84399
907 43826 50898
908 61011 61170
909 20134 49398
910 8143 50822
911 40772 72010
912 55005 98939
913 35865 59527
914 24279 39015
915 15779 86523
916 27123 23940
917 22316 85546
918 44998 47782
919 23256 97332
920 26226 79331
921 85995 54415
922 51201 75340
923 30346 52277
924 47405 59575
925 20969 68913
926 3949 60979
927 65508 51349
928 19816 64372
929 89803 102717
930 22562 56698
931 51100 44142
932 69105 78470
933 78278 52127
934 15154 94315
935 42450 24912
936 52330 40950
937 8432 50875
938 66965 81765
939 23540 59245
940 -1215 63430
941 58446 89675
942 70818 55979
943 75879 56172
944 20212 36739
945 34 81361
946 49144 47032
947 23600 74005
948 57710 91029
949 16259 68796
950 9975 39711
951 14617 76753
952 81438 50422
953 64994 93466
954 5520 90546
955 19016 79982
956 9845 82560
957 27070 62844
958 26960 68398
959 5135 28251
960 58941 24148
961 31016 94704
962 53108 103339
963 69836 70666
964 4428 23852
965 57504 66015
966 33167 72603
967 154 58834
968 67794 53953
969 52262 65822
970 -910 90352
971 10848 68434
972 23189 63071
973 13001 61903
974 14864 100645
975 41920 93940
976 80353 73072
977 38886 76006
978 77577 64698
979 54864 47261
980 83063 3782
981 58763 97990
982 22919 59556
983 1128 93200
984 79864 101004
985 66601 84147
986 6085 30497
987 47201 77923
988 47808 75718
989 3473 97404
990 42990 35291
991 9593 35318
992 10040 66334
993 62351 94625
EOF
