NAME : lhk
TYPE : TSP
DIMENSION : 993
EDGE_WEIGHT_TYPE : EUC_2D
NODE_COORD_SECTION
1 80000 20000
2 17223 85947
3 34643 82799
4 10018 59349
5 -4661 35981
6 41540 90016
7 63748 34017
8 36964 41210
9 17859 6286
10 53643 75566
11 13725 36976
12 26599 42645
13 65548 82118
14 9909 95528
15 1966 70157
16 15146 100236
17 27976 80395
18 16923 90829
19 58989 75320
20 55386 36040
21 36943 92562
22 32596 68993
23 36679 92850
24 54268 103897
25 58796 13261
26 92628 96386
27 37017 25224
28 56048 43261
29 31557 87298
30 79857 45003
31 37423 54671
32 11623 83271
33 19016 47159
34 83271 25127
35 23537 56692
36 52496 51719
37 25333 94598
38 22809 53704
39 34592 41002
40 -5808 93758
41 48879 90250
42 25247 85019
43 65737 93942
44 55555 44286
45 29985 86050
46 65985 41428
47 5169 38798
48 -3242 55733
49 8144 89615
50 31110 44835
51 20746 88730
52 69151 71543
53 66670 95785
54 39628 87938
55 34133 71572
56 60268 35615
57 33471 71757
58 16939 56930
59 15278 86450
60 19884 48727
61 30432 79412
62 -563 19493
63 42062 89188
64 49759 43760
65 24382 24171
66 19260 35174
67 58671 38646
68 62381 62772
69 66481 60439
70 46625 45131
71 65574 48034
72 60117 75087
73 26833 98454
74 36231 96167
75 -6290 27538
76 -5940 90081
77 15002 84904
78 -47 60527
79 29242 43043
80 35132 61647
81 30021 77225
82 23296 60747
83 42663 71355
84 75105 75219
85 46389 61902
86 55966 53461
87 -7313 29078
88 16945 27047
89 17802 80709
90 31743 56110
91 1184 89075
92 52220 65749
93 28175 95478
94 9749 92544
95 55001 75587
96 10677 85989
97 31021 91723
98 7203 66164
99 97405 21566
100 22260 75691
101 15201 52597
102 48945 60419
103 68574 56052
104 68120 7971
105 45902 54247
106 58004 100601
107 12696 96594
108 91995 57242
109 10532 80950
110 48258 77100
111 66858 65693
112 35630 24516
113 53444 71808
114 18265 77967
115 14321 65934
116 11661 93245
117 -4210 53098
118 62078 48005
119 57564 97249
120 19322 69883
121 37030 83209
122 18822 31341
123 -114 54655
124 4208 48215
125 23079 80609
126 12568 35641
127 46091 79966
128 31032 53362
129 4155 40772
130 40066 88807
131 16338 63654
132 6276 54685
133 20296 75677
134 8025 29165
135 55147 69722
136 71505 104666
137 90072 42329
138 25338 60981
139 18656 97412
140 35055 108752
141 46673 89425
142 39692 93841
143 16226 50838
144 77626 50841
145 39831 77048
146 67542 88200
147 46184 97430
148 30335 50459
149 18855 42549
150 68695 99264
151 30033 90291
152 35520 44363
153 62091 72182
154 2749 80403
155 9759 45246
156 48246 53569
157 46928 85725
158 3020 48507
159 72459 96763
160 77108 85293
161 46846 29069
162 51858 62526
163 2687 66954
164 39434 63012
165 42198 29768
166 48866 91612
167 6862 63098
168 38245 83108
169 27089 72371
170 2593 91843
171 96065 58347
172 39071 77755
173 37879 90597
174 55627 65713
175 23692 43353
176 39974 66489
177 64695 17942
178 67065 95191
179 5644 85093
180 55136 74365
181 46624 46173
182 36701 97466
183 11026 55982
184 11869 87540
185 18809 79738
186 60121 98524
187 50968 53962
188 -4862 22999
189 47640 58336
190 32232 81498
191 65468 56062
192 38019 33124
193 15595 73510
194 54678 88565
195 42727 46474
196 71281 42541
197 12509 59283
198 48021 39459
199 86496 54834
200 701 87268
201 6115 88389
202 72777 56382
203 57189 87763
204 5916 73865
205 90322 77223
206 13653 42387
207 42532 92921
208 2937 76989
209 59342 69011
210 39470 26030
211 53508 50102
212 17353 9896
213 8466 46803
214 -3480 101402
215 2305 42928
216 44267 78158
217 49915 63258
218 53006 50868
219 109 46598
220 8663 67234
221 31943 73439
222 18528 32539
223 11504 47092
224 32295 84404
225 10314 66951
226 43245 73764
227 36599 74153
228 8949 100241
229 14964 50327
230 57139 73893
231 38927 92848
232 39695 93827
233 59846 42715
234 32057 63965
235 10059 53039
236 55975 73031
237 5480 93768
238 47403 53818
239 62713 63862
240 46956 96751
241 2410 81805
242 29040 88901
243 88698 57041
244 97050 9890
245 14692 82390
246 48981 96422
247 30701 15607
248 -746 86054
249 49692 72883
250 21882 93470
251 48175 37577
252 69724 98080
253 34778 72001
254 23097 81882
255 29419 21985
256 5788 65100
257 24394 87533
258 46517 25333
259 4153 31497
260 60432 79731
261 83300 6122
262 34851 24242
263 53536 51141
264 1588 93841
265 43360 70630
266 39139 103347
267 28633 72822
268 25861 53229
269 19711 27168
270 30939 62723
271 38638 79214
272 31961 90794
273 8648 63502
274 58243 91519
275 77950 38774
276 27827 68137
277 47358 45100
278 5223 57718
279 37139 26048
280 18686 53469
281 49841 86529
282 47629 62952
283 50945 62967
284 15672 40184
285 26307 18014
286 67575 87098
287 60070 66408
288 29607 2923
289 23617 97450
290 50828 32844
291 63921 79852
292 43351 57418
293 48233 88315
294 63854 51195
295 42533 80121
296 58533 20007
297 27596 71999
298 73770 82346
299 -1273 83652
300 -2620 31297
301 -187 87530
302 -202 84649
303 34837 47946
304 2683 62277
305 10705 92733
306 51162 82878
307 25003 101953
308 23900 30262
309 34210 66041
310 40040 94272
311 44021 21109
312 94067 75654
313 17105 43441
314 46980 89880
315 52809 41714
316 61741 82261
317 5294 96412
318 66709 80792
319 71851 102872
320 46406 83292
321 48570 88885
322 15359 81929
323 76147 85146
324 60651 48583
325 25432 50786
326 13389 85817
327 26630 71986
328 18758 59293
329 4885 41987
330 12872 62006
331 2507 43694
332 8689 32670
333 86728 60267
334 30206 76426
335 67764 64556
336 54211 85143
337 3776 54985
338 45525 29192
339 17342 71294
340 19138 83017
341 62826 78098
342 2759 52031
343 52587 46634
344 38514 84347
345 55025 105566
346 90947 23583
347 10222 75416
348 -1134 64004
349 6893 18828
350 23147 59587
351 40284 70911
352 31612 11770
353 12928 51137
354 73740 94469
355 25687 25361
356 56459 38961
357 40582 54157
358 69916 40616
359 71377 43729
360 27532 57129
361 16262 82606
362 12920 77780
363 15328 16722
364 28488 19217
365 1521 97785
366 40793 75124
367 9058 7169
368 55668 92005
369 11544 90322
370 47952 87597
371 40245 56008
372 6822 60382
373 96329 90283
374 18828 49643
375 8660 72858
376 42290 101118
377 11134 62789
378 64201 40612
379 61616 85792
380 29337 32396
381 6997 100647
382 460 68718
383 27328 61253
384 72153 72854
385 5240 43482
386 87359 68319
387 11964 92026
388 78214 56163
389 18047 35700
390 44626 97815
391 24523 63939
392 21663 49436
393 36257 89404
394 70779 69691
395 33365 94908
396 60230 90030
397 60540 55489
398 30084 34739
399 6465 74185
400 14441 84334
401 16980 67854
402 1054 83207
403 14180 19462
404 22180 40262
405 43430 72398
406 8987 105395
407 51943 83562
408 37387 10512
409 52745 87694
410 26438 98240
411 46109 74485
412 17405 67107
413 6572 13994
414 33622 59094
415 31486 52045
416 53416 89479
417 38827 93569
418 72700 78535
419 24606 80209
420 61702 26946
421 67826 66885
422 44119 29735
423 29832 53624
424 14355 44734
425 24834 80855
426 81129 48441
427 -643 83862
428 6155 70571
429 28755 85366
430 5968 78801
431 27553 104289
432 16562 73602
433 48024 67783
434 -1422 76069
435 51848 110785
436 -1976 103099
437 5674 81375
438 38313 86302
439 26440 45333
440 29415 17081
441 68492 69219
442 14087 101763
443 15184 92785
444 26117 85349
445 4980 84007
446 -1004 70890
447 10247 88611
448 15659 86952
449 27495 90318
450 42057 91443
451 88901 76562
452 21322 60017
453 45003 41696
454 43829 73654
455 29467 79421
456 -3978 23878
457 23135 105511
458 9613 71018
459 45538 36046
460 30259 64351
461 61610 85816
462 34895 42778
463 24816 100813
464 10182 44692
465 64887 95231
466 65930 76522
467 68740 47990
468 42317 24228
469 54074 64629
470 18460 88386
471 36579 102945
472 40964 58902
473 52712 41999
474 82137 94985
475 24589 26587
476 32766 37553
477 20390 45437
478 72345 84001
479 64355 54158
480 19546 75206
481 39665 38595
482 66931 70311
483 21600 69903
484 91918 10538
485 45073 67622
486 60996 54260
487 14844 31501
488 15670 72352
489 11854 15302
490 2734 49866
491 34709 80149
492 21364 99840
493 55825 52644
494 29440 70770
495 83528 93659
496 16959 82817
497 16309 48439
498 96636 56181
499 48575 56402
500 -291 44372
501 16619 68272
502 29173 68615
503 14797 72616
504 5941 63713
505 67448 22188
506 7874 50165
507 79461 56748
508 22768 58816
509 36052 40076
510 71855 78858
511 27855 56096
512 49874 98306
513 42552 47502
514 53823 80513
515 -2998 25979
516 57085 69768
517 49502 92151
518 7597 73872
519 37982 -4100
520 61804 46196
521 82933 37955
522 17429 108421
523 38278 38740
524 35204 71435
525 20454 64345
526 23897 44963
527 18741 70953
528 3436 53959
529 83486 70975
530 29045 34376
531 54187 85752
532 3625 60326
533 52527 107429
534 43955 49468
535 7722 42509
536 20247 53841
537 39957 93685
538 25426 75544
539 60456 52193
540 50552 96560
541 33747 75000
542 44869 93712
543 7743 51095
544 27380 46777
545 67589 95606
546 21693 50040
547 7277 85977
548 6289 95676
549 43402 99096
550 34187 27196
551 24670 81686
552 9513 84215
553 28998 70321
554 73508 55016
555 3121 79537
556 53429 27443
557 8727 75138
558 17491 85086
559 53336 64402
560 43416 99200
561 16609 78709
562 38041 77106
563 46074 78863
564 47950 79525
565 37048 85125
566 21006 60686
567 40177 42456
568 69561 84906
569 -280 97364
570 42571 98164
571 3359 84827
572 39289 72865
573 7683 27747
574 43885 21578
575 28475 75255
576 46821 81154
577 43217 64235
578 42439 53778
579 21025 79946
580 62286 74372
581 71534 98825
582 62248 10758
583 50253 71271
584 65780 56692
585 57788 97148
586 -6933 90869
587 37515 31703
588 25632 66632
589 6582 23994
590 4986 55625
591 96399 28185
592 31268 70717
593 76697 40252
594 24891 95262
595 48137 38712
596 63785 55819
597 35927 73980
598 39610 58474
599 64772 31871
600 30816 52352
601 19416 75979
602 21050 63465
603 13523 30188
604 31358 46812
605 21474 78999
606 58400 69487
607 68388 43731
608 2902 70771
609 25281 73465
610 70829 48234
611 22792 103003
612 27529 100166
613 21361 41907
614 43295 98694
615 33022 77488
616 -488 84290
617 11351 32102
618 59444 60663
619 61444 91163
620 32119 45381
621 70264 105250
622 38775 60390
623 64661 94553
624 59210 45476
625 46504 91213
626 67769 63593
627 25621 19362
628 95055 12422
629 6641 75667
630 6474 13485
631 13833 64264
632 28448 94433
633 54525 75372
634 33109 49899
635 57648 44021
636 30987 70893
637 47902 80384
638 3810 92724
639 32473 88684
640 9174 82365
641 30468 57022
642 12618 21992
643 44272 82785
644 25377 19507
645 63849 43408
646 23698 64913
647 -6338 17808
648 66884 52346
649 78305 75583
650 39665 79673
651 69690 64702
652 22897 93972
653 -1119 50562
654 49865 12875
655 69039 66982
656 19036 47170
657 72108 57806
658 15592 68964
659 27547 65431
660 47387 93655
661 86853 66655
662 16049 21813
663 36537 72252
664 16790 43152
665 21423 49646
666 8542 70492
667 75752 95147
668 6948 62624
669 54280 73229
670 20690 2328
671 61564 44527
672 54456 66283
673 24378 88491
674 8734 21865
675 12340 13200
676 66852 43611
677 43096 62682
678 14057 46596
679 3520 92046
680 30694 38464
681 21229 59782
682 46436 35053
683 13131 9123
684 39762 67656
685 84948 60685
686 84086 79653
687 4204 71287
688 42732 38444
689 29763 51477
690 31708 77907
691 51199 87862
692 23333 57288
693 38633 39142
694 -1564 94474
695 -3954 65866
696 25240 88208
697 29628 95836
698 24660 68350
699 16922 51638
700 19659 87413
701 18122 48841
702 21776 61810
703 26440 17746
704 6867 63143
705 38392 14460
706 20424 53934
707 32408 43249
708 35672 93115
709 4110 54861
710 29399 24876
711 18996 21859
712 17648 95445
713 13988 99843
714 45360 92546
715 29666 103937
716 37934 65537
717 46708 34622
718 546 71140
719 6942 84649
720 1937 94000
721 26445 58864
722 73076 9454
723 2077 8652
724 20439 46105
725 38945 79309
726 79780 84003
727 19645 83819
728 68548 70838
729 9243 75488
730 24121 56044
731 27549 63098
732 12825 33894
733 43791 65680
734 31072 68258
735 -2583 64174
736 28619 51752
737 8725 86974
738 56896 95212
739 37008 106479
740 19412 59700
741 76807 82955
742 9201 24542
743 66195 90464
744 59021 71926
745 69252 75034
746 78185 42700
747 40380 90545
748 11198 69612
749 22775 35743
750 2702 43264
751 16034 106551
752 42147 32834
753 28921 97523
754 30494 97366
755 56595 92498
756 45333 79218
757 32677 51904
758 14887 85638
759 20465 53377
760 3185 81692
761 7997 60508
762 18579 93182
763 59285 74713
764 43564 100693
765 16779 59737
766 43508 62304
767 41187 92800
768 66910 66016
769 14758 103146
770 49636 77713
771 8572 40753
772 18193 51553
773 13973 55731
774 20500 85452
775 54447 85897
776 69664 83554
777 13177 106526
778 51864 18124
779 34107 50525
780 47089 66814
781 11645 80619
782 59949 39866
783 49016 72036
784 31688 41364
785 12727 59628
786 42001 26292
787 24416 98854
788 40546 29550
789 38866 60235
790 21308 81237
791 40495 36964
792 54325 60260
793 -3546 86445
794 52590 54299
795 5910 24065
796 27775 81869
797 5088 73122
798 13066 43958
799 47100 66694
800 -6449 60596
801 53931 75767
802 60587 81121
803 48896 78554
804 -362 90025
805 39289 52038
806 14351 60993
807 30103 83563
808 33540 79721
809 31265 96226
810 36966 60571
811 47838 55049
812 25605 40204
813 4910 6456
814 73767 85458
815 44706 93382
816 20949 90129
817 49578 84368
818 67183 89926
819 73181 78441
820 61045 21462
821 76401 94662
822 66074 31245
823 35714 25014
824 73604 98936
825 26354 36400
826 16520 79059
827 50654 74761
828 7504 88170
829 51562 41619
830 31677 29713
831 1848 78142
832 58897 25653
833 51098 82091
834 28683 88704
835 33069 37834
836 80797 41238
837 19655 36683
838 64197 78014
839 73114 55855
840 25943 56761
841 40158 92897
842 10759 39683
843 62785 51578
844 38110 46636
845 53648 38676
846 64074 97508
847 20466 62809
848 65135 77498
849 46407 44982
850 12127 53114
851 79551 55761
852 52631 97577
853 73835 65925
854 43915 27310
855 64373 94330
856 48161 65164
857 61277 104861
858 50741 82830
859 28875 56041
860 27574 89466
861 17092 79994
862 50310 81952
863 44744 44024
864 -317 49235
865 73813 83253
866 51579 30433
867 38457 88671
868 63273 73156
869 538 89132
870 26168 34733
871 53456 37838
872 22232 92803
873 26297 76461
874 45947 32199
875 46346 98475
876 50916 37252
877 25776 42377
878 38068 88749
879 44066 74129
880 9246 74385
881 54982 82770
882 17407 2336
883 50427 101176
884 30247 13676
885 86455 53287
886 21880 88339
887 22421 90645
888 63153 88197
889 29214 73034
890 92064 91760
891 3213 78443
892 42677 46271
893 12817 79342
894 81922 91012
895 47163 62408
896 48886 75100
897 58217 102510
898 23562 63350
899 594 26420
900 23126 21476
901 76351 70839
902 26863 54815
903 21507 27402
904 31712 66500
905 65327 72913
906 152 78911
907 48763 39165
908 68393 69642
909 30792 42335
910 8511 51341
911 47417 72191
912 48215 91740
913 26451 56998
914 29121 50740
915 2058 86405
916 34038 24256
917 16877 91486
918 38230 39734
919 29445 97508
920 33579 84664
921 74795 50182
922 48441 65910
923 35166 56056
924 49903 45225
925 26942 77215
926 6700 54781
927 66948 47214
928 19199 77052
929 86771 108667
930 30315 57178
931 57188 40107
932 66401 80972
933 78535 52055
934 15699 92097
935 43565 25499
936 51809 27607
937 16669 49694
938 80347 83035
939 20595 51888
940 4404 63651
941 58719 79493
942 71889 59344
943 70180 61720
944 21826 29488
945 7452 79480
946 45106 55895
947 25704 76833
948 52259 87718
949 5329 72542
950 15021 40958
951 21549 73640
952 97219 53988
953 54434 92296
954 6218 80776
955 30021 86321
956 7113 77233
957 20973 60893
958 36160 66457
959 7965 39575
960 63424 22836
961 39415 103644
962 51111 91788
963 72427 80220
964 6006 22912
965 60549 61326
966 18125 65814
967 8732 67698
968 80314 52772
969 51191 76445
970 -1354 92005
971 11315 69042
972 22787 72047
973 11687 48910
974 17004 94032
975 26551 95451
976 67676 65494
977 35863 75102
978 76987 60291
979 54999 39854
980 79255 -541
981 46390 95709
982 14343 59404
983 12077 78420
984 80732 96541
985 51685 94294
986 13660 35570
987 54016 77797
988 51960 72119
989 5427 95077
990 38458 46901
991 17318 39732
992 14231 74457
993 68329 99603
EOF
