NAME : lhk
TYPE : TSP
DIMENSION : 993
EDGE_WEIGHT_TYPE : EUC_2D
NODE_COORD_SECTION
1 80000 20000
2 13074 89203
3 37145 77467
4 6757 57280
5 10566 23028
6 40131 99428
7 70726 28644
8 35275 39183
9 20686 4344
10 61592 64778
11 10303 32064
12 29749 38421
13 54287 76128
14 17687 96787
15 11925 68672
16 25549 89355
17 21680 81047
18 11418 100374
19 63690 76393
20 59610 36443
21 28002 98752
22 39934 72086
23 33981 99050
24 45119 100780
25 66751 21920
26 94005 86960
27 41727 16495
28 53067 37000
29 27901 98086
30 84078 44122
31 35205 49733
32 15067 86637
33 20473 38808
34 84922 40354
35 27686 60854
36 55951 50033
37 29779 91052
38 16671 40459
39 21045 42307
40 3060 94936
41 49930 81659
42 29166 81038
43 56967 98221
44 65603 37532
45 22188 93835
46 63925 38272
47 -1142 36112
48 6188 55608
49 9989 83992
50 46327 48834
51 16486 87071
52 68270 74990
53 66048 94573
54 35575 93618
55 30393 54025
56 45055 28575
57 35395 68493
58 5543 46176
59 15765 76340
60 31402 64939
61 38760 83298
62 -5483 15761
63 52615 101889
64 51417 40999
65 34942 30500
66 19568 34022
67 54075 36973
68 57425 72930
69 68144 60297
70 47905 46513
71 59480 46365
72 70773 76116
73 42181 93376
74 24610 98222
75 2026 19886
76 1508 80805
77 25001 92093
78 3573 66546
79 12859 48564
80 17151 63148
81 44447 71450
82 17122 66478
83 45037 82358
84 69037 77605
85 61026 69060
86 63391 51492
87 -1088 30608
88 13426 25039
89 15556 72513
90 24703 60368
91 493 82118
92 57293 81295
93 33517 90028
94 12080 82695
95 55367 77688
96 21465 83072
97 38670 98404
98 23227 68498
99 94788 26125
100 31487 75041
101 8991 60102
102 54677 60078
103 66905 58963
104 66776 3022
105 33726 65724
106 44974 108925
107 3990 95370
108 84134 51382
109 6348 91302
110 58603 68058
111 68451 55119
112 29071 24394
113 60408 75387
114 10271 71122
115 14034 63976
116 22314 100811
117 -1188 48863
118 71134 56137
119 60452 86484
120 22031 73424
121 34432 85957
122 27932 32573
123 -5584 63173
124 16903 48901
125 27503 67114
126 26027 28304
127 55219 86150
128 40664 53632
129 9293 52121
130 41360 100473
131 16648 65332
132 2382 66367
133 22004 70982
134 8114 28075
135 36070 64664
136 78395 101149
137 82950 43250
138 23729 61175
139 13704 99513
140 30725 90839
141 48538 75159
142 21254 90158
143 29514 57114
144 67372 41467
145 33273 67989
146 57177 89448
147 41487 91090
148 37352 50049
149 20961 43047
150 75312 93677
151 25940 93890
152 27961 38600
153 69872 67557
154 1976 86279
155 11780 35730
156 41131 38174
157 44524 98844
158 10644 52381
159 75408 93277
160 78610 87793
161 39328 33092
162 55724 68209
163 20060 66220
164 40229 67810
165 53863 30138
166 41665 105647
167 7724 62159
168 37812 86968
169 17775 76983
170 3628 82326
171 97094 55153
172 49423 62825
173 39845 98427
174 60754 66125
175 13369 60498
176 36614 71668
177 68242 17364
178 54853 94906
179 8357 83787
180 42545 90532
181 36673 54912
182 44159 89719
183 3442 51788
184 24809 87682
185 17110 67454
186 63885 91914
187 62605 56002
188 587 18268
189 45559 59599
190 38016 86545
191 68269 59883
192 44440 42004
193 11442 61866
194 46889 91486
195 38791 47074
196 77781 49276
197 2242 58820
198 50824 38142
199 80515 58126
200 5795 93800
201 11717 93525
202 77988 71134
203 67128 94122
204 4715 81591
205 87709 78746
206 24114 36887
207 47739 100124
208 6708 71852
209 50874 68574
210 46778 31503
211 33772 52595
212 11661 20510
213 1452 47619
214 2187 101677
215 6216 64352
216 36797 84772
217 58704 63323
218 61284 51932
219 5953 58865
220 1889 65124
221 20119 73786
222 19912 23902
223 17184 52229
224 28685 74437
225 5452 74652
226 39255 71614
227 35586 71168
228 17756 98613
229 17907 40456
230 60228 89740
231 36111 90584
232 35491 97672
233 72836 52588
234 23637 54514
235 -6371 59015
236 44343 65804
237 55 95809
238 37255 54192
239 59197 66080
240 39824 85856
241 6263 80802
242 31602 85362
243 88327 49460
244 98009 14774
245 21921 89272
246 53739 85705
247 34226 21543
248 6572 89538
249 56202 73442
250 18228 86321
251 45554 21900
252 63239 93738
253 31387 74512
254 29471 87320
255 17560 27160
256 -2643 69036
257 37278 84506
258 40204 34238
259 10819 27739
260 61799 78031
261 88020 1399
262 45853 31369
263 46105 52226
264 7019 88971
265 36552 63901
266 38454 101419
267 25534 72692
268 28242 63294
269 4906 23068
270 25784 50832
271 27991 79295
272 32453 99979
273 14471 68234
274 63994 92940
275 77036 29610
276 12224 63204
277 46179 36843
278 12358 73786
279 31007 27807
280 20423 49218
281 45934 77310
282 53456 52738
283 47470 71518
284 14456 38369
285 28526 27446
286 63754 90020
287 55481 57517
288 32137 2998
289 13541 85605
290 43919 17467
291 70596 78211
292 40331 59114
293 41325 73520
294 49724 58945
295 41903 70485
296 69601 20794
297 22793 79516
298 64981 93034
299 3148 65593
300 -2936 22702
301 -1355 83723
302 11058 83908
303 29401 49076
304 12009 51533
305 15612 91564
306 51280 88750
307 16134 91172
308 19727 30959
309 35604 63922
310 35148 94552
311 36146 17603
312 83542 77401
313 15889 45347
314 56157 96104
315 63258 39226
316 52123 83159
317 11604 84673
318 52987 88870
319 73187 94069
320 44091 83351
321 47075 90112
322 7087 73530
323 82551 84145
324 72937 41434
325 23797 53662
326 16814 88747
327 8517 79807
328 28071 77729
329 -2548 37851
330 27863 70844
331 -3906 42506
332 5159 19955
333 86881 74232
334 28018 75965
335 83573 57389
336 59717 79532
337 23412 54517
338 43151 25046
339 11784 69589
340 7611 73455
341 68379 62945
342 11253 49412
343 47950 53030
344 47107 91260
345 53038 102133
346 95355 19892
347 14596 78835
348 -3201 66172
349 9236 19548
350 23428 74318
351 37246 64313
352 36937 12009
353 14258 48619
354 69854 92345
355 25745 30630
356 58031 34371
357 34494 50636
358 60910 53582
359 60476 28688
360 38384 72509
361 27191 81581
362 25972 66327
363 469 13482
364 27917 7460
365 8100 95321
366 36211 70195
367 19882 8540
368 55557 94641
369 24510 98187
370 56498 93388
371 30523 53144
372 -971 63282
373 89012 75343
374 9154 52456
375 7706 71290
376 49325 102773
377 9015 65109
378 65698 37076
379 63846 86962
380 30562 34209
381 14870 104727
382 -6371 61535
383 25888 60889
384 81475 59196
385 7530 39892
386 76481 70904
387 13255 87202
388 79183 46718
389 37376 36893
390 43329 96353
391 29555 64018
392 23066 47756
393 41261 89570
394 68807 68690
395 42300 89121
396 72519 84619
397 66132 52275
398 25546 42956
399 10250 61232
400 10178 75636
401 5721 76913
402 1955 87001
403 17882 29662
404 30360 37631
405 42590 67177
406 166 99998
407 45950 83020
408 32050 9496
409 56161 92126
410 34694 103302
411 45964 61686
412 18957 62370
413 -1032 20369
414 26747 59008
415 30023 42170
416 47562 76677
417 38965 84423
418 75145 80572
419 18523 84867
420 42314 21753
421 69984 61057
422 37813 35692
423 12235 59918
424 20013 40340
425 19621 78475
426 79236 49353
427 2871 82486
428 6388 70939
429 26294 88479
430 14047 68736
431 16005 101532
432 18366 72788
433 60358 75224
434 3941 79986
435 48890 96711
436 9046 94692
437 10206 93283
438 38142 78622
439 26005 45230
440 21702 13564
441 62039 70095
442 21719 97495
443 12431 83668
444 18129 74507
445 8224 76904
446 7295 81153
447 13609 91046
448 6190 89800
449 35675 96663
450 49688 95290
451 88908 80352
452 22720 69974
453 41857 42130
454 47920 68228
455 23359 83668
456 11136 21677
457 22100 101101
458 11700 86223
459 54687 37427
460 37012 67458
461 63861 73718
462 40611 53461
463 16278 94590
464 3415 43683
465 65139 88827
466 69710 84324
467 71697 40211
468 44475 32298
469 54101 64779
470 29352 83521
471 28616 94759
472 35630 60321
473 45737 44457
474 91530 85808
475 12759 23007
476 24082 35386
477 17837 43543
478 62811 92341
479 74039 56755
480 18642 69771
481 42059 38204
482 68074 82823
483 4904 63322
484 100745 2516
485 44628 70223
486 60471 55548
487 27287 35511
488 19093 79201
489 14384 8508
490 8020 42218
491 15526 81730
492 16982 100132
493 51189 51653
494 40721 58319
495 75490 91267
496 17292 91420
497 22449 50411
498 94005 69088
499 52644 62762
500 -2304 39943
501 14623 74021
502 33489 74282
503 20130 63829
504 13657 63202
505 66335 30200
506 2762 53652
507 86236 60404
508 17609 62122
509 25979 40859
510 67797 83504
511 29440 58905
512 48288 97232
513 47822 55415
514 51330 78259
515 3926 19972
516 64262 65082
517 40158 98237
518 8098 69179
519 43850 -1802
520 50429 52485
521 92475 34726
522 23194 99130
523 40517 48290
524 34244 72293
525 20838 70003
526 25647 44895
527 28241 73477
528 8712 52975
529 81835 65903
530 39183 28042
531 47194 91119
532 -265 63250
533 48879 98329
534 41331 52745
535 19688 47218
536 26790 49347
537 48935 92987
538 16392 68129
539 57203 53183
540 40956 100552
541 41810 68132
542 50880 94105
543 4456 55181
544 26119 45066
545 68654 94535
546 27065 54106
547 7529 84879
548 6301 85150
549 35878 84530
550 26844 38274
551 26205 84859
552 18851 76873
553 25013 59495
554 73871 58618
555 -136 78518
556 55548 36181
557 10210 83583
558 5476 83082
559 35970 63296
560 37554 104511
561 14510 73492
562 47441 72064
563 41805 76620
564 44378 84851
565 39808 91204
566 18127 54679
567 40495 45493
568 61399 80499
569 12086 101212
570 37514 92965
571 11977 82764
572 29574 69589
573 -1324 29092
574 30246 11014
575 22842 69294
576 67478 76701
577 43268 71491
578 54705 63257
579 24052 79808
580 76153 84603
581 72100 105968
582 51212 15277
583 55626 84002
584 73628 55862
585 52025 98363
586 -7559 97709
587 43604 37261
588 30422 69194
589 8121 15401
590 12560 61067
591 79828 30787
592 33432 72763
593 77941 50774
594 27223 99550
595 52969 39342
596 65041 64272
597 30258 56859
598 46304 49691
599 65467 21539
600 29989 63465
601 18978 78089
602 25812 71330
603 23809 31356
604 27534 49561
605 36910 75112
606 51610 78912
607 65880 37607
608 -5535 65744
609 25137 85889
610 79238 43768
611 24727 94676
612 30743 97845
613 20294 35448
614 41314 91545
615 42342 81956
616 -5299 74089
617 13243 47138
618 52994 66718
619 50890 101235
620 32214 44875
621 62752 99096
622 37443 48452
623 67601 87664
624 49705 47763
625 51660 104437
626 55817 64019
627 36299 18922
628 96099 17306
629 12338 75424
630 14142 13651
631 12737 70383
632 30809 96119
633 41964 75212
634 31635 54272
635 58278 34912
636 16660 74391
637 55954 86380
638 5685 89858
639 34093 87873
640 10836 68778
641 28838 63029
642 9618 26195
643 42808 82569
644 33648 20759
645 59011 37394
646 30443 62603
647 2882 14466
648 60933 65821
649 80472 93821
650 49726 77515
651 76015 64621
652 22777 93996
653 15515 41347
654 53235 25912
655 64198 66107
656 33031 46936
657 73553 56210
658 12010 84771
659 27667 77348
660 45094 80184
661 87744 73340
662 19639 24086
663 32477 86018
664 16421 42003
665 25920 39540
666 8658 70311
667 73682 82915
668 -2273 60161
669 60411 67318
670 33938 11734
671 66196 40035
672 58444 77009
673 37537 84620
674 9233 31450
675 9066 15128
676 61128 42900
677 43979 65232
678 14975 61186
679 2227 95264
680 27258 41570
681 23136 75927
682 63294 30346
683 6407 13276
684 41062 59603
685 74418 58484
686 98632 89575
687 -4270 68331
688 32736 38910
689 28770 52039
690 32330 76332
691 61655 90820
692 19423 45999
693 49941 41811
694 9478 87949
695 2146 70779
696 23080 77313
697 23135 103051
698 21479 74883
699 26882 44624
700 6670 95982
701 14256 41078
702 24419 71977
703 28748 24676
704 -559 65566
705 28049 23960
706 15807 61568
707 33737 42640
708 37023 91588
709 1721 56657
710 19700 23924
711 10090 33488
712 8563 94872
713 15964 95736
714 53432 96517
715 21974 97145
716 46394 76341
717 56507 49648
718 6201 57256
719 10214 75625
720 4707 85921
721 26897 64108
722 73818 7613
723 2871 6740
724 26062 41552
725 40445 70530
726 73951 91901
727 8795 79405
728 65630 72926
729 -409 86661
730 27977 62001
731 26811 84601
732 12171 52567
733 39797 58963
734 23868 65571
735 -5925 63934
736 23775 58441
737 -5086 91999
738 57617 94218
739 45729 98841
740 20608 70399
741 85733 75897
742 10708 21987
743 68851 88545
744 53628 54654
745 66692 66722
746 75583 40653
747 55243 87219
748 7464 60620
749 34985 51518
750 4853 43615
751 13109 101005
752 51120 32010
753 31513 104076
754 19956 92649
755 51144 97171
756 52635 80801
757 21562 54863
758 21270 82228
759 20030 46283
760 -6780 85029
761 7846 60774
762 24672 91861
763 60045 65356
764 42962 82891
765 21359 64193
766 40729 71932
767 43623 99824
768 65912 54406
769 20323 92182
770 53073 76077
771 17135 47226
772 15808 48585
773 14776 52062
774 30948 84932
775 45977 96922
776 71262 78079
777 16508 100027
778 55345 14639
779 26817 43535
780 44818 78484
781 13540 79235
782 60003 32226
783 62202 75846
784 28862 40381
785 5945 52157
786 45078 35064
787 34241 87547
788 32603 27588
789 26242 61051
790 34628 70757
791 45260 36919
792 45731 57625
793 3715 87583
794 55735 49345
795 6787 27659
796 33583 95226
797 15385 78120
798 26104 44207
799 46100 69580
800 4519 70324
801 56062 76942
802 61644 77756
803 54536 82062
804 8436 90232
805 39248 68644
806 3189 52407
807 39039 90591
808 41517 89519
809 25164 101539
810 45736 64726
811 49856 57269
812 36367 34628
813 5772 3030
814 77854 93060
815 40496 80854
816 2601 96422
817 61536 79586
818 64639 99646
819 74505 78795
820 68250 26269
821 82988 97921
822 55842 41606
823 34403 28430
824 70456 100052
825 32059 15017
826 11903 79325
827 49189 87448
828 4201 97840
829 61748 35671
830 20014 32528
831 6442 79961
832 49888 22293
833 59111 75699
834 22857 85156
835 40595 30223
836 90322 45440
837 16689 24329
838 80647 75087
839 83337 53885
840 36904 63343
841 38248 80769
842 2831 49371
843 61108 44022
844 56326 48631
845 46866 44808
846 68108 91791
847 19921 58747
848 71877 77039
849 37754 44536
850 1812 43822
851 68279 52885
852 50000 89914
853 81720 64936
854 41008 31645
855 81771 94264
856 49484 67700
857 57493 97897
858 51948 74129
859 28657 47120
860 26251 87634
861 14066 74799
862 49172 83409
863 28751 42147
864 7555 45495
865 75970 85319
866 38933 30036
867 37478 95604
868 63150 69750
869 1810 94725
870 20253 27263
871 53264 42790
872 21330 97155
873 35606 85480
874 44101 26695
875 41390 95535
876 54767 53346
877 29517 48530
878 39704 99423
879 30624 74351
880 16672 66220
881 61675 79481
882 10272 12190
883 45946 101537
884 26797 19849
885 91657 60110
886 27206 90918
887 12029 81215
888 55973 84948
889 21277 80684
890 91178 90723
891 2590 79593
892 34032 58872
893 2599 83030
894 78504 88469
895 46166 70258
896 49700 80729
897 54309 94899
898 22028 62118
899 -5955 19806
900 24195 26495
901 76439 69453
902 19445 59661
903 22459 15012
904 27756 62663
905 72487 79723
906 17249 81212
907 46230 41480
908 65310 71032
909 17787 45682
910 9814 55120
911 47449 67149
912 59379 99259
913 30333 68138
914 28360 48033
915 5777 100651
916 24025 26368
917 19289 89924
918 47739 41336
919 38315 79791
920 44017 83263
921 84974 42812
922 47395 78775
923 37716 53997
924 37688 55355
925 28252 63827
926 12341 57296
927 59724 54987
928 24564 72679
929 88459 104273
930 34820 49941
931 66186 37876
932 61775 83072
933 74025 47489
934 19758 91729
935 45032 28705
936 46601 39948
937 17769 48447
938 62741 77760
939 27836 57112
940 495 65679
941 51767 78871
942 65585 56286
943 58707 55544
944 23604 35057
945 8785 86096
946 49668 49956
947 21120 73115
948 52087 91449
949 10456 70898
950 22246 45039
951 17256 68614
952 81400 57720
953 53228 86364
954 1955 96587
955 24166 83569
956 13568 81821
957 17031 46689
958 26490 58149
959 -46 41108
960 55064 25135
961 30410 101415
962 47284 99284
963 62441 69170
964 5905 23055
965 56144 66149
966 14873 68747
967 8691 76777
968 80832 50758
969 58350 64666
970 4778 87280
971 10766 65497
972 27583 68037
973 12732 55942
974 12509 82703
975 39801 90493
976 65051 69437
977 43093 74052
978 78372 63217
979 59889 45358
980 90092 2370
981 55745 104041
982 17579 64446
983 8254 83828
984 84014 95126
985 62664 97409
986 11748 43562
987 49155 68871
988 55307 83320
989 -2136 102244
990 34597 42972
991 6884 46320
992 5333 70581
993 52147 93497
EOF
