NAME : lhk
TYPE : TSP
DIMENSION : 164
EDGE_WEIGHT_TYPE : EUC_2D
NODE_COORD_SECTION
1 80000 20000
2 67341 17027
3 62273 15975
4 41190 17714
5 28231 29554
6 35265 17337
7 24361 23107
8 22989 23522
9 12125 15923
10 18895 17303
11 32151 17139
12 26688 29102
13 11898 18292
14 10517 16265
15 12189 17000
16 12075 16449
17 12878 29460
18 11299 24523
19 9287 48115
20 22784 44875
21 16136 33020
22 9283 48311
23 13213 46845
24 9296 47617
25 13471 49562
26 16886 53081
27 9033 62413
28 11792 47125
29 11876 53581
30 20427 59812
31 11726 76729
32 12283 71271
33 9040 62016
34 10413 64323
35 11400 77303
36 9017 63339
37 12202 72065
38 11858 75441
39 10309 87766
40 10538 83158
41 18755 77688
42 69561 43553
43 83932 62472
44 75702 50188
45 72150 52923
46 59360 68226
47 56618 66224
48 67094 45666
49 67194 54081
50 69809 56803
51 75340 62483
52 73406 61723
53 57781 86948
54 75146 63643
55 70413 63556
56 58179 69036
57 58278 51302
58 59532 67615
59 57514 65655
60 39097 75729
61 49562 72044
62 33665 77570
63 22295 89398
64 10252 88929
65 10771 90402
66 10212 89774
67 10714 79622
68 28917 89535
69 19824 89660
70 24395 89597
71 32173 78076
72 25050 89588
73 38687 88621
74 28156 89120
75 31354 88968
76 32035 89189
77 44680 88336
78 34278 88830
79 41257 87991
80 41863 88456
81 52186 87981
82 46769 88237
83 51627 88007
84 58466 70118
85 52782 70885
86 48886 88137
87 50099 70916
88 71947 88179
89 42418 88526
90 66626 87741
91 54974 87849
92 55337 89338
93 53416 89343
94 54147 88324
95 59345 87641
96 71867 88173
97 67835 87989
98 67240 84828
99 61890 87520
100 68780 87918
101 56536 87775
102 72136 88195
103 80311 88436
104 80027 88844
105 85900 80396
106 86044 81710
107 76043 81344
108 82034 70677
109 82662 63533
110 84676 62240
111 78336 57191
112 75452 56832
113 67676 44932
114 62242 42774
115 62790 42442
116 50264 18514
117 52896 38292
118 53608 38557
119 52862 38209
120 60622 50056
121 46687 43334
122 39665 49307
123 41234 50293
124 29800 30014
125 30493 37947
126 33131 34173
127 36598 38935
128 23886 44454
129 29073 39978
130 31036 39723
131 19775 44275
132 31942 35874
133 30205 44689
134 25032 62524
135 9279 48544
136 12613 46963
137 9021 63111
138 22723 60967
139 9028 62701
140 31179 66881
141 25908 65835
142 40751 48740
143 36735 67285
144 25481 65667
145 38867 68521
146 32449 67152
147 32661 69111
148 35374 70473
149 39663 68690
150 39110 66845
151 43600 59099
152 58977 68803
153 46819 70216
154 59368 67948
155 33988 64985
156 18346 64455
157 19769 63377
158 19541 64327
159 19094 65005
160 71003 34011
161 77820 32164
162 82259 31984
163 86054 17551
164 85455 16759
EOF
