NAME : lhk
TYPE : TSP
DIMENSION : 162
EDGE_WEIGHT_TYPE : EUC_2D
NODE_COORD_SECTION
1 80000 20000
2 67455 16873
3 46928 41805
4 42246 49836
5 46535 54714
6 52370 64230
7 63111 23443
8 68115 14984
9 10799 45404
10 10811 45313
11 13005 46368
12 11529 49970
13 36578 49848
14 37053 48616
15 33924 51626
16 33524 51919
17 32050 54576
18 31749 54398
19 35706 52168
20 38262 62270
21 46535 54714
22 62252 65106
23 48614 68402
24 62760 66325
25 56012 63253
26 56402 65008
27 57697 68559
28 48738 63403
29 63369 70064
30 64318 70496
31 62751 68972
32 49929 68098
33 65553 71140
34 63922 70514
35 82064 71799
36 68358 70876
37 72543 74839
38 85608 80245
39 86077 81406
40 73887 88647
41 74650 89710
42 81776 87944
43 74949 88608
44 55311 89322
45 77867 88502
46 75142 88601
47 62780 89051
48 57869 85586
49 51781 89228
50 43197 81834
51 46048 80330
52 40160 88451
53 42213 82273
54 40160 88451
55 48894 89251
56 43314 81509
57 47478 67402
58 39958 54261
59 29752 61715
60 34357 51066
61 30364 69455
62 28038 65321
63 31284 59463
64 31147 69861
65 33371 66189
66 32594 53691
67 39985 57487
68 28784 64991
69 27901 68175
70 20722 88909
71 29346 68926
72 29254 67896
73 33514 73097
74 36890 72187
75 40406 70303
76 51221 73193
77 32730 65551
78 35074 54779
79 41298 40345
80 14547 59177
81 18931 51839
82 10368 48605
83 18152 53106
84 11322 49146
85 13191 60920
86 8696 63431
87 12911 63385
88 11743 73645
89 11812 85682
90 9981 89513
91 10078 89660
92 11601 90061
93 16012 88521
94 24121 88252
95 30462 88138
96 37692 88028
97 27538 88197
98 33199 84362
99 43500 80990
100 39578 84819
101 35064 87963
102 43372 81345
103 35449 87972
104 32666 81782
105 28317 84642
106 12258 83461
107 10674 86030
108 11708 73957
109 12943 63102
110 12364 68187
111 12275 67752
112 10327 70908
113 10660 71952
114 11686 74150
115 13570 80419
116 10922 88461
117 12133 83682
118 12754 82386
119 27887 68027
120 30562 57840
121 12259 48718
122 15653 32804
123 14999 38223
124 23962 48908
125 20377 50513
126 8935 40617
127 12176 26713
128 12221 27155
129 13971 15424
130 12761 16457
131 12518 15174
132 33699 14093
133 31801 22783
134 30558 23146
135 28923 22741
136 32575 51759
137 31876 50899
138 30560 23515
139 40255 19393
140 41937 39967
141 46401 37329
142 48071 36342
143 42684 46552
144 50596 34850
145 51108 34926
146 60940 47165
147 50315 35016
148 59784 36731
149 58872 38700
150 54563 47237
151 73034 52347
152 68708 49453
153 70963 52653
154 62252 65106
155 63106 61806
156 60737 36086
157 85151 40851
158 79771 50017
159 86166 49820
160 85352 51738
161 85933 24554
162 86268 17591
EOF
