NAME : lhk
TYPE : TSP
DIMENSION : 103
EDGE_WEIGHT_TYPE : EUC_2D
NODE_COORD_SECTION
1 95000 50000
2 77640 49601
3 69288 50289
4 60584 51599
5 57725 54180
6 53080 70334
7 57852 70215
8 33668 78858
9 36164 71814
10 40862 68841
11 38050 66152
12 37981 62927
13 31726 58978
14 24290 54210
15 20430 56753
16 17503 61497
17 8748 58957
18 3791 59919
19 5139 52863
20 6094 48232
21 6265 47131
22 11730 36700
23 10388 29729
24 10037 27902
25 4935 25428
26 7406 20313
27 3282 12615
28 4635 4621
29 12385 7138
30 11839 5468
31 15813 11159
32 18642 13175
33 19965 14651
34 28965 8754
35 33146 5509
36 36673 5669
37 34129 14981
38 38756 16053
39 41252 16887
40 45814 15059
41 47224 11643
42 55253 1725
43 59550 10697
44 60572 13136
45 65658 9990
46 73849 4922
47 74845 15174
48 76964 25296
49 71786 29068
50 73387 35138
51 71189 36109
52 61887 35137
53 63400 35629
54 61647 33621
55 57178 34953
56 53437 35258
57 47739 32462
58 52126 33712
59 40990 30468
60 38621 29876
61 34760 29864
62 30845 25920
63 24084 29378
64 21386 30758
65 24472 35420
66 26218 40236
67 28393 42278
68 36081 45593
69 43216 50777
70 49840 49255
71 55008 48577
72 49024 56488
73 32730 78112
74 24977 73961
75 21548 72323
76 16440 73924
77 4625 79615
78 2309 85204
79 3079 92927
80 485 97153
81 10284 93619
82 9882 93588
83 16691 89925
84 20989 93610
85 25964 93334
86 39468 91566
87 47195 83872
88 49810 89426
89 59254 94055
90 66372 97633
91 72735 95367
92 67378 90943
93 62471 86895
94 58634 84059
95 50930 77330
96 54534 69114
97 62084 69763
98 65779 72310
99 67390 74064
100 72307 76407
101 76082 69215
102 74910 61750
103 79268 56236
EOF
