NAME : lhk
TYPE : TSP
DIMENSION : 993
EDGE_WEIGHT_TYPE : EUC_2D
NODE_COORD_SECTION
1 80000 20000
2 4573 82285
3 36588 84316
4 5481 58881
5 5514 24787
6 41583 94787
7 62006 30275
8 37760 44100
9 20920 3013
10 56713 74955
11 13898 40249
12 24347 37899
13 52810 82954
14 23113 100626
15 5021 72600
16 23880 96013
17 27404 78476
18 20315 98608
19 65750 76248
20 50262 37132
21 27488 98456
22 40247 64057
23 31745 85256
24 56760 102477
25 57289 21325
26 93330 85311
27 28675 25908
28 56348 20954
29 35411 103767
30 74674 43433
31 36141 59471
32 6239 77095
33 11963 31055
34 77073 35787
35 16550 52942
36 67657 56578
37 21436 105609
38 25373 46732
39 35716 45249
40 2654 94152
41 52385 81776
42 21178 83665
43 64572 97055
44 70904 43268
45 18132 85793
46 64376 37021
47 7052 40244
48 9658 46874
49 5917 81647
50 35966 51381
51 17077 92440
52 61745 79930
53 65781 87498
54 38159 97845
55 42743 54257
56 59055 22779
57 35122 76688
58 7372 49330
59 29563 92774
60 23859 56613
61 31204 85043
62 2780 15895
63 49399 91394
64 46990 43692
65 22316 28987
66 26389 38951
67 51226 36818
68 66301 66181
69 60418 53241
70 50688 47934
71 68537 48487
72 60386 76753
73 36722 102247
74 27556 98534
75 993 23021
76 10275 83938
77 25741 86445
78 1881 67070
79 19905 48568
80 25745 61988
81 36845 67138
82 13090 66239
83 53924 78427
84 70123 72212
85 55702 52494
86 59588 54297
87 3318 36059
88 9445 43754
89 18927 81560
90 31880 55911
91 -231 79392
92 41475 71265
93 29539 93417
94 16234 80397
95 47268 70269
96 11071 94457
97 41790 93304
98 15476 66190
99 93565 35791
100 21408 71263
101 7700 52501
102 43462 58239
103 64514 63581
104 68985 -2803
105 44992 65789
106 55456 100507
107 2626 100851
108 98518 55797
109 5002 89135
110 63260 66947
111 65604 61793
112 34289 23010
113 58640 75841
114 14397 69069
115 14007 66351
116 11893 96178
117 445 49563
118 61943 50331
119 57495 95168
120 13580 67593
121 29998 93971
122 29222 25404
123 -2886 47712
124 6633 41288
125 20306 80844
126 28355 40592
127 52106 88056
128 40312 53652
129 11984 43139
130 40296 93932
131 16415 66951
132 13663 60669
133 18306 68457
134 12901 36442
135 43424 70754
136 75527 92268
137 76087 57672
138 30895 60736
139 8216 82813
140 38261 102744
141 40783 87262
142 31819 97804
143 18431 49098
144 61410 54669
145 31301 75459
146 74036 92622
147 37206 97274
148 36797 55010
149 18454 43737
150 66229 108588
151 39135 85008
152 34173 48656
153 78754 73614
154 8779 84978
155 9658 46649
156 43174 44228
157 43418 95809
158 -204 51523
159 68449 96106
160 77109 85313
161 36829 30076
162 51172 60714
163 14769 72465
164 41560 71393
165 46448 25040
166 44410 96473
167 2896 54907
168 23530 77853
169 22043 74931
170 -78 74965
171 89206 52892
172 33613 69337
173 34960 100073
174 63400 68652
175 9246 56986
176 44530 68021
177 67639 14887
178 62394 91625
179 6547 78583
180 53027 81330
181 38085 41064
182 42980 101871
183 15328 50324
184 20393 98254
185 15466 80668
186 61317 94316
187 55389 47263
188 -7960 20537
189 63173 51771
190 39397 69979
191 70044 52121
192 39224 39884
193 11966 69297
194 44928 81505
195 45391 55092
196 83859 54796
197 18452 69509
198 49030 40061
199 74188 50463
200 4132 80766
201 10424 100211
202 74535 58855
203 58965 95267
204 -3647 75843
205 93125 77843
206 15957 32562
207 47199 87411
208 10350 69720
209 57260 68572
210 49531 40697
211 30963 51174
212 13676 11393
213 10233 52445
214 4831 94754
215 4042 47581
216 37204 76424
217 52799 63858
218 57416 47690
219 -3889 54538
220 12365 62034
221 11754 72847
222 26309 27592
223 15879 44192
224 25109 76791
225 11248 68187
226 37924 72271
227 25999 78845
228 22430 99375
229 15451 47295
230 60291 76556
231 36512 91242
232 31554 95250
233 81102 47518
234 30087 55812
235 -5295 65123
236 49647 66268
237 11297 91648
238 41723 44976
239 62371 73088
240 49212 82697
241 11934 86171
242 39839 83723
243 89349 63346
244 91585 12679
245 17443 84984
246 60377 83564
247 27435 19126
248 4927 95578
249 48273 72803
250 27176 86815
251 40026 33799
252 70562 96192
253 26040 80408
254 19946 88300
255 25243 15656
256 6096 71937
257 32496 83500
258 41085 33068
259 -480 22999
260 52986 84835
261 84691 15505
262 34198 25180
263 60867 43703
264 -963 98270
265 42654 59824
266 40568 108761
267 23948 66743
268 30759 61955
269 16344 25069
270 22496 50044
271 34130 81605
272 35820 93740
273 8601 68885
274 68531 83843
275 89003 44390
276 18770 64694
277 42664 36091
278 17326 67322
279 22148 33529
280 25047 58658
281 63308 82782
282 36674 56828
283 61281 65345
284 7540 48143
285 24119 25052
286 75310 88123
287 65022 63842
288 36562 11320
289 25800 92698
290 53992 28470
291 58718 65920
292 37175 62189
293 40835 92745
294 53788 58057
295 47869 83762
296 55591 15929
297 32654 71150
298 69219 77830
299 8328 69942
300 6180 22688
301 1329 79476
302 13234 82851
303 28941 48652
304 1710 57070
305 19906 88615
306 46456 100344
307 29850 99046
308 23067 20084
309 35143 65293
310 32608 90241
311 47976 23833
312 81145 80793
313 1938 33436
314 59779 88953
315 65619 34849
316 61780 66397
317 16695 81357
318 70042 76491
319 64598 101598
320 46759 88797
321 47662 87893
322 4411 83557
323 76285 94767
324 77280 41276
325 18870 55603
326 1649 78010
327 20348 73975
328 26321 74520
329 -4753 37076
330 19288 63330
331 4857 50683
332 9638 20105
333 72762 75908
334 15466 82536
335 67647 59689
336 55647 79877
337 16470 53213
338 38287 19262
339 14655 58074
340 11208 76529
341 60935 69757
342 2853 51399
343 39416 56040
344 46681 93147
345 55259 100126
346 92661 9440
347 8612 85519
348 8851 66280
349 21886 15063
350 25961 66229
351 41869 74140
352 39994 4519
353 16033 59365
354 73372 105325
355 22773 30878
356 49453 45082
357 41625 42743
358 61702 45007
359 63412 38385
360 32087 67781
361 19826 83030
362 16234 64344
363 -2848 18011
364 34573 12272
365 3369 92072
366 32967 71217
367 19488 4253
368 54465 91687
369 24480 80414
370 49443 80183
371 31308 51123
372 2044 66287
373 100410 73050
374 6140 38174
375 12476 68521
376 42781 88350
377 9202 63628
378 68792 35334
379 68498 74347
380 47998 29595
381 6181 107954
382 -4970 74118
383 25226 63850
384 70699 71828
385 1173 48688
386 82290 76120
387 19756 87669
388 79740 54497
389 26046 32313
390 35245 91766
391 27203 62619
392 25409 52188
393 24952 93172
394 63838 67390
395 27353 89530
396 52944 77367
397 65884 59848
398 28174 35342
399 16362 68542
400 15774 83127
401 12336 75185
402 10879 94028
403 19261 23132
404 21145 43291
405 39832 69302
406 -2496 98369
407 48713 84268
408 37148 7444
409 51905 85192
410 27343 97419
411 38040 60673
412 27108 68970
413 6552 17941
414 36122 46397
415 36482 46962
416 51530 96312
417 42895 84101
418 74066 87663
419 22976 79608
420 50161 23073
421 71914 56944
422 42416 42927
423 23392 51079
424 10309 45653
425 12800 90430
426 77082 51588
427 -3634 75652
428 1792 79374
429 38250 84905
430 16377 73809
431 26689 97921
432 10351 85986
433 53088 75836
434 1522 86957
435 61175 95390
436 7165 98166
437 7574 78844
438 42423 84522
439 25045 45217
440 18886 9846
441 53661 57561
442 21903 100146
443 10867 90188
444 20494 76398
445 1917 84579
446 1147 80681
447 11124 94002
448 1357 80709
449 35808 94022
450 39709 84183
451 94933 65582
452 19119 51700
453 42950 33547
454 48221 66409
455 29420 71969
456 5364 28218
457 15964 100722
458 17655 75950
459 48325 38886
460 36806 73166
461 57936 69039
462 37808 54713
463 14717 89228
464 9246 53395
465 59138 94632
466 78256 89336
467 68247 44938
468 42922 38357
469 55409 66180
470 23025 85698
471 35929 89733
472 45308 47894
473 40054 52174
474 87214 89214
475 22606 23989
476 19167 46489
477 25815 51837
478 67535 96091
479 58399 63147
480 12180 65546
481 30913 37649
482 58888 78929
483 14341 59756
484 86955 9143
485 44065 69555
486 55755 63754
487 19969 42013
488 27336 72524
489 8433 9865
490 6782 49885
491 34043 91704
492 26508 91465
493 49713 48883
494 25140 63016
495 74208 97886
496 26360 89086
497 13609 56817
498 98645 63992
499 44985 50935
500 6020 34569
501 17851 63248
502 29810 57140
503 15015 73805
504 11221 70512
505 78789 17080
506 19084 58661
507 88299 61435
508 21204 58132
509 24900 52712
510 61759 73991
511 24018 59068
512 53881 99550
513 43416 48088
514 56077 77276
515 13993 30216
516 54663 63292
517 47501 91884
518 -356 79645
519 45809 1695
520 57898 54381
521 84646 47690
522 20909 98467
523 39474 51977
524 36435 71710
525 7116 59230
526 35705 53786
527 17087 71949
528 3374 53994
529 83495 82587
530 30270 32472
531 53293 81762
532 4035 62514
533 48810 98252
534 38726 56747
535 12564 48408
536 22532 48185
537 50242 94679
538 33074 83934
539 65051 55332
540 37128 85821
541 42672 84263
542 49008 101197
543 23069 48782
544 22098 39544
545 65349 90223
546 26073 56989
547 483 89433
548 8126 79050
549 33951 100572
550 27004 35661
551 16000 72686
552 11588 74129
553 21350 68245
554 73417 45722
555 5593 77013
556 60432 26670
557 9900 74522
558 12350 88199
559 45519 63765
560 37230 93222
561 14560 80673
562 49273 88134
563 44194 81616
564 46390 85533
565 41288 74505
566 16095 60159
567 41281 48583
568 63519 89182
569 9478 94161
570 37540 98782
571 1994 82730
572 37435 62011
573 17443 35708
574 27555 15975
575 31806 80174
576 52468 80760
577 38592 50732
578 52806 64537
579 23512 81506
580 74548 76399
581 75166 104742
582 58342 19832
583 51882 78605
584 66996 56625
585 66019 90536
586 6507 88561
587 42881 30328
588 28553 65672
589 10567 15527
590 8677 65922
591 83958 36189
592 30003 69131
593 82393 55089
594 18485 103397
595 57151 44142
596 55943 66734
597 45298 71941
598 44914 58227
599 67866 22244
600 27020 62745
601 21872 72436
602 18005 58905
603 22334 29853
604 27520 53354
605 26721 86463
606 52274 65475
607 55344 36327
608 -4592 73547
609 20071 86212
610 72072 34625
611 25992 95775
612 30627 98348
613 26970 30761
614 38052 93046
615 37995 77824
616 4115 77442
617 15027 38380
618 58740 76772
619 56540 99631
620 33830 51317
621 61324 96934
622 47964 53117
623 78126 90396
624 56602 49868
625 51122 98517
626 56922 62379
627 27125 20501
628 95796 11806
629 -2010 86647
630 9020 7683
631 13845 65904
632 25762 99895
633 50633 74339
634 27903 57935
635 48133 33236
636 26830 73820
637 49683 81889
638 1142 88954
639 34834 92597
640 10123 66762
641 26000 69879
642 13621 20537
643 47721 74331
644 27452 18197
645 64651 40646
646 36754 66877
647 4654 16752
648 51483 64084
649 87830 78384
650 37575 82148
651 60657 64356
652 20922 102948
653 9319 45653
654 50776 16347
655 67337 72297
656 20594 45297
657 69613 57682
658 -2201 76910
659 28827 74839
660 47309 80664
661 91312 66378
662 17601 23917
663 39282 71760
664 20149 39155
665 28094 40682
666 8188 67719
667 82727 92347
668 -298 60327
669 66684 68303
670 29284 9062
671 73650 44825
672 61890 80360
673 33023 82018
674 3143 17895
675 8520 15400
676 62993 44518
677 43968 68395
678 21708 57402
679 -2066 87911
680 25260 43189
681 9801 72017
682 51867 31196
683 7851 12805
684 42458 73453
685 82268 48988
686 90916 90781
687 13760 70222
688 34006 39737
689 23813 62791
690 28555 71036
691 55932 90440
692 17527 57001
693 44262 49553
694 10924 83983
695 8014 61084
696 18676 86802
697 27172 96082
698 27070 79385
699 10706 54236
700 11633 88244
701 21422 42986
702 18942 72395
703 22398 24309
704 15297 53712
705 25864 15893
706 20807 62088
707 36983 39492
708 33886 86123
709 -3441 45283
710 31714 22515
711 14710 23086
712 15568 91833
713 11275 87221
714 42322 98439
715 28384 104820
716 36154 68753
717 57432 43869
718 2894 62198
719 9218 75806
720 13593 88404
721 29431 53927
722 69588 9671
723 12985 14183
724 21260 51201
725 33440 70877
726 82367 89529
727 15923 79706
728 69605 62875
729 4014 77330
730 33685 60128
731 36219 66609
732 8437 45926
733 45208 68729
734 32462 69065
735 3381 64369
736 23329 57578
737 -3022 79845
738 56998 102540
739 46858 103389
740 14951 63432
741 77057 86067
742 11462 21103
743 65780 86380
744 57817 64605
745 64877 73555
746 69071 42276
747 52069 87783
748 3905 68509
749 28861 46889
750 4462 48896
751 11740 99716
752 44578 29732
753 39561 98114
754 20536 92301
755 49779 88974
756 45228 80978
757 28517 48023
758 28063 72403
759 11420 39925
760 5312 72082
761 12592 57321
762 28246 101960
763 56228 67130
764 44844 86396
765 17126 68435
766 39411 57684
767 42634 101082
768 71198 61160
769 25059 97850
770 50657 80264
771 14848 35931
772 21540 42695
773 11094 56422
774 37632 90808
775 60959 96118
776 73130 84949
777 13920 102509
778 66484 17950
779 36757 52547
780 46732 75488
781 10461 79982
782 57272 31200
783 56488 78971
784 34125 32888
785 11800 73782
786 56159 31849
787 30215 94294
788 28372 36107
789 30472 51399
790 24043 73314
791 43518 39995
792 54346 63797
793 -1075 75666
794 53334 56816
795 -591 24011
796 32437 87790
797 17224 88025
798 9902 53121
799 47543 65385
800 4903 58205
801 54829 66444
802 70254 78933
803 54744 81769
804 9212 87423
805 49370 69870
806 7531 58685
807 37722 84733
808 47313 73378
809 24926 91917
810 39036 59874
811 69031 59682
812 29303 35501
813 10818 8086
814 76111 84516
815 51246 78357
816 5221 86351
817 49805 93454
818 64326 94854
819 72728 78751
820 58087 21351
821 74731 103311
822 65375 24465
823 40978 28826
824 67095 84223
825 33776 28192
826 23428 74116
827 40875 81431
828 11592 97626
829 58865 33239
830 20290 40842
831 8229 73884
832 59982 29373
833 58247 83024
834 26254 89176
835 32014 26063
836 90149 43943
837 28602 30168
838 71706 70522
839 92095 46132
840 35721 61298
841 39422 89469
842 8023 48527
843 58320 53955
844 54019 55644
845 47144 44367
846 59158 91277
847 27523 74183
848 62071 72535
849 44766 45741
850 -4092 59870
851 79089 49817
852 50707 97301
853 72518 61035
854 30760 30071
855 74598 93007
856 51714 76920
857 56839 102303
858 50211 75145
859 10270 47792
860 25762 90065
861 16037 72644
862 48949 86281
863 38227 35679
864 12362 44152
865 67481 86897
866 51645 30290
867 38412 88618
868 64988 69472
869 4740 102862
870 23933 31845
871 54138 47326
872 17331 86168
873 35003 72682
874 61313 25539
875 43780 99694
876 52017 42611
877 30184 39417
878 35560 85748
879 38326 65245
880 10044 66785
881 58875 82076
882 11605 7690
883 48492 95838
884 37556 10380
885 82511 46345
886 20880 91503
887 16182 71427
888 59623 82823
889 18996 75577
890 83832 83953
891 4276 69340
892 24517 60972
893 7948 82531
894 78693 95873
895 46207 66294
896 48742 81039
897 50795 87633
898 19250 70248
899 659 41017
900 16637 16584
901 69580 71056
902 24689 65066
903 15445 21894
904 31680 55800
905 65487 72373
906 3901 94341
907 62972 42515
908 63868 60847
909 24339 48951
910 10155 45695
911 36767 74247
912 57353 98897
913 37900 62579
914 26282 52689
915 5954 90228
916 22926 28706
917 4952 86464
918 44638 50350
919 27576 77380
920 41761 88895
921 79227 43159
922 51002 73481
923 41751 45926
924 48902 55070
925 23671 60123
926 843 67606
927 67428 45649
928 25572 75796
929 85894 98669
930 26121 62485
931 55770 39276
932 58602 87524
933 84805 48838
934 18672 94157
935 43762 27106
936 35731 30291
937 7376 58197
938 78598 83951
939 23863 45184
940 6595 58329
941 46553 86506
942 74747 50344
943 61840 60045
944 16660 30442
945 -5761 89651
946 57988 49583
947 16055 76228
948 59921 80204
949 15644 80072
950 7885 42727
951 18557 72489
952 88379 49364
953 50619 91658
954 4572 90608
955 21017 79041
956 10312 85945
957 22470 63757
958 33063 65091
959 4756 38682
960 64264 14662
961 26895 99832
962 49004 98789
963 81325 72564
964 7085 23586
965 46788 57309
966 21352 59800
967 -8990 73428
968 86870 55986
969 49322 65720
970 3380 92921
971 19702 68679
972 19981 60540
973 13426 53512
974 14975 89749
975 34563 105120
976 76221 70398
977 34150 73677
978 82233 53489
979 51006 42215
980 79971 1825
981 54302 95364
982 20563 65268
983 9903 76437
984 77466 105906
985 57194 100195
986 10624 33949
987 47165 80585
988 57305 67164
989 -339 96531
990 33767 32933
991 7090 45317
992 4903 76288
993 60138 104600
EOF
