NAME : lhk
TYPE : TSP
DIMENSION : 148
EDGE_WEIGHT_TYPE : EUC_2D
NODE_COORD_SECTION
1 80000 20000
2 51689 77003
3 49816 69315
4 49462 67861
5 50796 68700
6 52583 69275
7 54979 85398
8 54663 86265
9 54183 87821
10 52797 79829
11 54648 81000
12 51565 88141
13 53277 87907
14 50036 70217
15 51986 77761
16 51782 77238
17 10832 72125
18 10256 72387
19 19940 68311
20 19893 67107
21 28344 67731
22 30617 79569
23 21835 68180
24 27826 69119
25 17399 71677
26 27746 69344
27 29145 69000
28 25863 65946
29 49356 62237
30 26437 61218
31 43974 62638
32 32657 65234
33 49317 63116
34 44340 62676
35 52102 58864
36 33742 41710
37 34060 45810
38 34197 44745
39 28280 67735
40 33497 43900
41 35271 46840
42 11471 44879
43 33751 41626
44 33677 42534
45 31401 41729
46 30039 40805
47 11507 42600
48 14550 43007
49 31828 40006
50 33384 44904
51 11541 40518
52 11167 52847
53 10642 48227
54 11584 37829
55 10628 23700
56 14038 20624
57 13601 17699
58 12134 16340
59 11805 15620
60 19208 30566
61 17719 24919
62 19382 24321
63 23304 22684
64 27208 21505
65 21459 20561
66 33266 18370
67 33515 18663
68 35209 17831
69 42721 17763
70 34863 31696
71 52383 34865
72 53995 32697
73 64406 18698
74 52358 34975
75 51242 45714
76 52500 35671
77 54299 36890
78 54220 38406
79 75863 51030
80 52524 35169
81 69237 52391
82 63008 32757
83 71622 17129
84 68926 14587
85 42429 50663
86 36257 51312
87 39158 47690
88 12844 68100
89 11115 69271
90 15340 66455
91 10670 76243
92 10704 75374
93 10784 73359
94 10200 89718
95 10043 88651
96 9864 89238
97 9612 88698
98 11399 91200
99 26846 89031
100 32653 88793
101 29331 88929
102 29720 78462
103 31743 83298
104 26925 71667
105 36001 88654
106 44388 88307
107 39021 88529
108 56204 87631
109 50164 86139
110 51915 85956
111 47803 89802
112 51748 77152
113 51622 88122
114 49326 62910
115 46641 62212
116 47903 80555
117 46339 62273
118 50935 64572
119 72876 51866
120 53279 65088
121 65701 68091
122 63445 66992
123 64329 66934
124 65808 65230
125 62813 67188
126 60299 72463
127 66544 68566
128 66422 67563
129 66982 67766
130 48310 79659
131 59337 73398
132 59319 82130
133 69675 88031
134 70566 88086
135 72120 88030
136 76197 88924
137 81964 87868
138 85749 83095
139 85991 82948
140 85335 82303
141 86659 49880
142 83976 50116
143 83148 50386
144 70275 52241
145 80023 45606
146 86530 39283
147 86268 17591
148 86268 17591
EOF
