NAME : lhk
TYPE : TSP
DIMENSION : 59
EDGE_WEIGHT_TYPE : EUC_2D
NODE_COORD_SECTION
1 2779 1649
2 4575 2200
3 5615 1330
4 4260 16579
5 4211 18519
6 5082 18069
7 5864 17430
8 9108 15245
9 9570 12353
10 9942 9505
11 10039 9001
12 12230 10918
13 16693 11612
14 16394 15779
15 20006 17653
16 21991 18882
17 23591 18663
18 23665 16230
19 28261 16069
20 29274 17510
21 31513 17461
22 37707 17946
23 38048 15980
24 37346 13898
25 37209 8999
26 36698 5282
27 36746 3032
28 36117 2658
29 35942 4742
30 29234 3889
31 25831 1243
32 26549 2868
33 29416 6372
34 22034 5813
35 19820 4798
36 18394 7008
37 17762 7124
38 17139 8266
39 13794 4844
40 13955 4616
41 13864 4173
42 12423 3622
43 8793 5085
44 20461 7928
45 22233 9630
46 27351 10201
47 29232 8061
48 33303 9780
49 34961 7939
50 38272 6736
51 38127 6478
52 37638 5927
53 13942 9279
54 2976 14218
55 1137 15003
56 2571 11929
57 4379 10004
58 3165 5756
59 2866 2571
EOF
