NAME : lhk
TYPE : TSP
DIMENSION : 181
EDGE_WEIGHT_TYPE : EUC_2D
NODE_COORD_SECTION
1 80000 20000
2 86268 17591
3 85441 35718
4 85814 38736
5 71739 54226
6 84644 53202
7 72664 54813
8 70256 74844
9 73617 65925
10 71805 72251
11 70172 74799
12 88677 75277
13 85998 83291
14 80136 88778
15 72005 88117
16 77322 91150
17 68120 87385
18 67007 87249
19 66372 87630
20 52986 87964
21 35843 89101
22 51466 88431
23 50620 89919
24 49754 90243
25 40824 88941
26 45822 88780
27 45472 90741
28 40733 91621
29 30304 90266
30 27722 89346
31 24753 90295
32 10712 88988
33 9989 89383
34 26064 89314
35 81003 87632
36 73371 77658
37 65234 83756
38 64302 76125
39 52069 72643
40 52527 69749
41 46375 71339
42 38958 76077
43 44616 72391
44 44370 80583
45 44102 79447
46 53921 78089
47 46657 78893
48 41543 71549
49 33164 76108
50 25332 72870
51 19350 68664
52 19973 71277
53 30396 60323
54 33266 67607
55 19099 68841
56 31002 61045
57 30593 58777
58 27758 62728
59 27120 56418
60 29312 58514
61 16781 59463
62 12260 77093
63 12975 69504
64 14543 72991
65 15979 64163
66 11228 63326
67 12039 72526
68 12211 69976
69 12283 77352
70 12043 72607
71 12917 72377
72 10626 76127
73 10185 78149
74 10743 90370
75 15730 88446
76 12260 77093
77 8842 81392
78 12306 77621
79 11249 88922
80 11176 84102
81 10743 90370
82 11820 74831
83 12544 82677
84 13807 90353
85 11092 90793
86 12362 78260
87 12033 86679
88 10571 81457
89 26173 88774
90 9948 57770
91 34652 46702
92 9722 48797
93 9870 53006
94 8485 52795
95 7214 57204
96 9761 50330
97 8565 50063
98 10046 50795
99 11969 38767
100 9757 50192
101 9594 43730
102 18359 38525
103 11835 40914
104 12196 39359
105 11030 18996
106 9489 20686
107 8699 20722
108 11265 28998
109 11763 17134
110 8523 21692
111 12883 16749
112 21815 24678
113 30281 43372
114 28954 30408
115 39538 32271
116 27051 32210
117 29209 43604
118 26432 38931
119 29761 43485
120 35829 45478
121 34193 39284
122 28616 43732
123 40774 47355
124 40972 46924
125 52113 43708
126 38369 56647
127 38577 39582
128 38133 41828
129 40364 47199
130 41665 47615
131 43991 55715
132 35134 78073
133 43873 88843
134 63242 86465
135 59946 84865
136 58017 85481
137 52817 70053
138 74666 56082
139 68734 66334
140 61091 61188
141 73185 76416
142 50321 68649
143 51578 54458
144 62331 71168
145 65270 70049
146 67715 68784
147 53400 67447
148 59263 69787
149 57663 62970
150 55033 31945
151 58158 35599
152 62015 46216
153 68158 52395
154 61464 53133
155 65878 52128
156 85216 40644
157 71234 53905
158 70108 50522
159 66432 51986
160 53839 33607
161 58398 27260
162 49892 38944
163 57891 27965
164 43935 29439
165 24376 44600
166 35575 30050
167 34402 24474
168 14020 14487
169 12991 16919
170 10865 16109
171 27052 44071
172 24199 44671
173 29018 50017
174 21644 15564
175 32467 16237
176 18970 14316
177 31401 20122
178 33121 13448
179 56700 14071
180 74230 18001
181 68670 16074
EOF
