NAME : lhk
TYPE : TSP
DIMENSION : 147
EDGE_WEIGHT_TYPE : EUC_2D
NODE_COORD_SECTION
1 80000 20000
2 85491 16800
3 84537 23444
4 79119 33414
5 75055 43854
6 75214 46193
7 49476 55289
8 52659 52751
9 58782 55766
10 49476 55289
11 34148 45834
12 50642 50998
13 40937 63589
14 53231 68711
15 42744 68654
16 49966 65537
17 52227 70126
18 52090 72917
19 59265 75020
20 50495 66076
21 55146 70063
22 62224 71042
23 61197 67183
24 62620 63338
25 49910 63704
26 54927 65597
27 59564 62209
28 75167 61586
29 66146 61840
30 75167 61586
31 71399 60384
32 82548 61852
33 83996 59967
34 85972 76740
35 86288 80186
36 80479 88576
37 72829 77670
38 63662 81222
39 72938 88350
40 71589 89764
41 72013 88103
42 54748 87534
43 51363 89545
44 37539 81872
45 44369 75486
46 53982 89679
47 49977 89474
48 44914 85658
49 43967 88424
50 45815 89261
51 35983 88281
52 32876 88763
53 28415 88075
54 30924 89586
55 31757 91137
56 30265 88373
57 29721 88286
58 26562 87777
59 19543 88290
60 23582 87057
61 18277 88677
62 10702 90032
63 12609 91657
64 10478 90072
65 9598 88707
66 25482 70071
67 10707 82225
68 11087 69311
69 11234 73362
70 9686 72687
71 10478 90072
72 11087 69311
73 12128 71446
74 11217 70928
75 10977 73035
76 11065 70046
77 11087 69311
78 14975 67883
79 13229 75670
80 26059 69886
81 36354 79784
82 33605 77371
83 38903 64300
84 39380 65277
85 40627 71983
86 37626 61687
87 29531 58305
88 24168 84223
89 26035 69965
90 28869 60513
91 27254 65899
92 29661 73908
93 22747 75963
94 10930 74638
95 26070 70755
96 10097 57429
97 30544 56183
98 24920 50542
99 27345 42777
100 34821 50512
101 36313 53009
102 52090 72917
103 57328 80837
104 54748 87534
105 21497 57127
106 13200 49953
107 14806 45388
108 11877 48041
109 12464 47695
110 10097 57429
111 11700 53173
112 13970 56451
113 10097 57429
114 15346 54661
115 21724 66239
116 11808 60244
117 21113 45852
118 20841 45894
119 23465 41997
120 30551 31438
121 12282 29760
122 11825 42443
123 12282 29760
124 17966 24287
125 13028 21529
126 14369 32338
127 11361 24693
128 13384 16902
129 12817 16954
130 11718 15670
131 12034 15970
132 34056 19306
133 36424 16208
134 36109 16254
135 35452 16509
136 34056 19306
137 34148 45834
138 32953 44155
139 33516 29136
140 30229 35349
141 34148 45834
142 34584 40996
143 45800 35575
144 56081 34071
145 55092 33881
146 62286 20063
147 62530 15994
EOF
