NAME : lhk
TYPE : TSP
DIMENSION : 156
EDGE_WEIGHT_TYPE : EUC_2D
NODE_COORD_SECTION
1 80000 20000
2 86268 17591
3 89587 19775
4 87119 28067
5 82816 51174
6 76021 51826
7 80062 50721
8 74059 46253
9 73234 51592
10 60976 75153
11 75805 54720
12 80173 51834
13 84397 53871
14 73234 51592
15 47587 45914
16 39442 41850
17 34776 55301
18 29958 55117
19 32895 52626
20 32753 50143
21 29546 47865
22 28491 43097
23 28564 43290
24 28492 44520
25 20955 67001
26 24499 62624
27 43832 79298
28 55234 88104
29 50857 87918
30 62168 88597
31 62368 88452
32 73151 88356
33 76935 88273
34 80142 88009
35 80371 88638
36 83111 82948
37 82064 79051
38 86176 80741
39 79696 74875
40 71294 76260
41 60532 74937
42 55757 77873
43 47979 80405
44 50491 87211
45 44026 88459
46 35412 89866
47 35942 90462
48 47563 89961
49 36107 89962
50 23405 88972
51 24417 86398
52 31707 88529
53 19441 88893
54 20584 80385
55 39098 88744
56 22873 88961
57 22715 88437
58 16647 91188
59 11411 91216
60 10628 71446
61 10108 89570
62 22979 69534
63 22150 72637
64 26906 78861
65 35952 81806
66 16759 65383
67 21038 68593
68 21773 68331
69 21512 67467
70 20847 64916
71 14383 56503
72 11435 64003
73 21100 67453
74 11602 59168
75 11551 58604
76 10283 56508
77 11906 42031
78 30246 37631
79 33050 21966
80 31238 34542
81 34113 25590
82 36252 16109
83 34006 14904
84 33302 15088
85 21784 17694
86 14097 13900
87 12089 16575
88 32337 39075
89 32606 38852
90 28574 42839
91 11750 49286
92 11256 48607
93 11405 43922
94 8286 38503
95 15434 16984
96 21657 23190
97 12813 34878
98 12228 33732
99 11601 28004
100 12127 15995
101 15138 22002
102 33512 27224
103 26908 38831
104 12121 70208
105 11745 69912
106 10942 69646
107 21832 74913
108 20323 71746
109 22232 71265
110 54451 88024
111 51465 86609
112 47877 88485
113 54547 86762
114 53645 87221
115 52674 75510
116 56636 74125
117 39536 62422
118 42263 68427
119 43979 70734
120 10456 77430
121 22906 72820
122 23318 71858
123 10437 78113
124 10197 86456
125 14036 80169
126 10518 75278
127 10109 89548
128 15331 78639
129 24841 73289
130 24937 72073
131 16449 76887
132 44095 70870
133 43498 70464
134 42002 61212
135 39538 56455
136 53090 42971
137 45273 56848
138 43660 55875
139 57053 54207
140 60039 72935
141 57388 64488
142 57772 55294
143 59082 61828
144 58830 60354
145 73657 69719
146 65433 69994
147 54535 64997
148 69782 54067
149 61328 51398
150 42894 46191
151 46322 46182
152 50008 34742
153 53557 34195
154 54655 32885
155 66898 15447
156 69183 19380
EOF
