NAME : lhk
TYPE : TSP
DIMENSION : 993
EDGE_WEIGHT_TYPE : EUC_2D
NODE_COORD_SECTION
1 80000 20000
2 16882 96123
3 39686 81873
4 18690 68664
5 1769 21532
6 41564 102208
7 63685 33262
8 33040 39797
9 18406 16447
10 50767 73882
11 12111 38607
12 18281 41980
13 63783 86634
14 14484 94972
15 5120 65689
16 15987 103683
17 28742 82419
18 21961 96609
19 70667 78095
20 48314 34290
21 34153 102367
22 25185 72642
23 33488 83321
24 47451 99863
25 69900 22692
26 85701 86111
27 41920 20269
28 51701 29546
29 31187 96788
30 74307 50167
31 38249 58637
32 18204 75805
33 18506 40697
34 87893 31410
35 20856 63321
36 46273 63517
37 27774 87577
38 25610 42650
39 33174 40046
40 6365 99515
41 58184 96249
42 33496 86223
43 61414 94070
44 68933 48043
45 27125 86821
46 62284 33796
47 15840 35731
48 4404 59991
49 9149 87940
50 36315 49339
51 25045 93472
52 72184 79151
53 76691 100986
54 41530 96822
55 35918 51159
56 54398 38840
57 29144 62950
58 16159 57741
59 19958 86067
60 27830 54659
61 29605 82017
62 870 16905
63 63825 93631
64 51129 45008
65 38687 17665
66 20717 41135
67 55517 43713
68 75651 71542
69 63313 68014
70 47159 44401
71 61707 53883
72 76989 79195
73 34339 92652
74 35522 82449
75 -1064 32222
76 7602 84356
77 21975 85164
78 -2151 58105
79 20117 44611
80 27891 64953
81 46156 75368
82 13202 68084
83 44693 80767
84 80285 75886
85 49237 63147
86 49767 57649
87 1730 31995
88 9347 30931
89 11600 80235
90 27462 53009
91 -1013 85616
92 59274 68918
93 35455 90127
94 20632 91684
95 48857 65993
96 10010 82777
97 34052 89771
98 2472 70160
99 103182 29469
100 27527 69198
101 3425 41100
102 58691 53604
103 64025 48286
104 68592 3835
105 39978 63995
106 52598 100607
107 4422 94184
108 87013 61519
109 15477 80838
110 55911 78968
111 69854 65913
112 36050 20719
113 44379 73939
114 20941 64920
115 18526 65086
116 8268 99013
117 2042 51895
118 70483 44634
119 55154 96408
120 21154 72496
121 31405 84577
122 27199 36913
123 -322 56921
124 8427 40136
125 30396 81681
126 25164 41941
127 52302 75304
128 30212 51964
129 -9876 46559
130 43239 89456
131 23860 71013
132 9176 65304
133 19083 67052
134 4876 24033
135 43404 63786
136 78323 99435
137 76530 50559
138 34270 60835
139 21188 98417
140 36649 104250
141 50282 91111
142 35446 87897
143 13393 48408
144 60354 43363
145 50353 76557
146 71857 88979
147 30654 99234
148 31517 52606
149 14288 44402
150 69267 98235
151 28710 94540
152 31147 38542
153 73847 67141
154 -161 86966
155 5622 51154
156 35815 43496
157 47510 103279
158 -545 49270
159 73962 83530
160 76902 84461
161 28505 27745
162 54656 61436
163 11928 79334
164 39837 68060
165 39416 28347
166 39746 94078
167 3454 48157
168 25611 87530
169 25282 75991
170 14454 85009
171 91490 48282
172 42453 66226
173 47574 89473
174 65865 58656
175 21483 51233
176 30948 60534
177 63820 4239
178 54094 84624
179 10464 77499
180 57026 88536
181 38226 38446
182 42378 101360
183 14302 50420
184 17812 92621
185 16132 72955
186 61084 96907
187 56337 48403
188 2629 8428
189 58293 50276
190 45838 78762
191 63405 58829
192 39344 26987
193 6306 60410
194 45570 81680
195 48190 42374
196 82286 45170
197 16767 67577
198 46358 38725
199 87582 45523
200 -3234 97494
201 8508 87517
202 80643 74622
203 54822 81242
204 5783 72127
205 87330 66111
206 24241 24646
207 38812 99164
208 1716 81974
209 48987 63690
210 56643 20621
211 42240 52026
212 8756 10787
213 3674 40718
214 -268 99481
215 10685 51267
216 30864 75713
217 42854 65887
218 49359 39883
219 4834 51926
220 4038 66471
221 28555 73611
222 26478 28328
223 10973 46826
224 23962 84615
225 4244 81390
226 40658 72665
227 35412 74660
228 18544 95180
229 9109 43738
230 62419 89995
231 36819 90968
232 27706 83929
233 71264 35923
234 20629 60480
235 -8087 65485
236 54911 66806
237 16002 91703
238 42190 47279
239 62536 68745
240 45551 93370
241 14922 77487
242 37391 83089
243 81199 48697
244 88775 1756
245 8690 78446
246 52730 84263
247 32483 19739
248 12783 84822
249 47144 87364
250 17670 83572
251 50058 28802
252 72709 103860
253 33816 75727
254 30157 78104
255 30486 11855
256 3532 66777
257 37988 81569
258 39460 33642
259 2559 18299
260 45615 88353
261 83470 4503
262 30488 26174
263 60724 43742
264 3641 88894
265 52211 66555
266 37354 96129
267 15527 79955
268 25667 61187
269 21059 28313
270 23015 53981
271 30055 80205
272 40200 98308
273 23884 67498
274 67769 93096
275 82728 35285
276 25675 73292
277 47074 36847
278 68 72589
279 27840 31450
280 20893 51190
281 48687 81320
282 48544 53919
283 52643 73283
284 2745 38901
285 25063 22146
286 66656 91156
287 61560 64426
288 41977 12898
289 23743 84769
290 38313 18785
291 65735 69459
292 40836 57733
293 36358 82047
294 64308 55707
295 33832 75742
296 68478 17941
297 32500 77413
298 65487 81315
299 11737 76088
300 16046 28255
301 -5164 76716
302 -1223 87873
303 28746 49360
304 7975 53707
305 12839 84343
306 46000 91235
307 26523 103423
308 20832 21276
309 22894 62719
310 41652 83766
311 32854 19794
312 93993 77992
313 7372 42343
314 54008 97077
315 65053 34775
316 57567 76396
317 10890 87189
318 59602 82047
319 68819 93430
320 47398 84555
321 40912 91009
322 6050 77231
323 80448 90461
324 67501 34842
325 27357 64817
326 5262 81098
327 15758 77682
328 25002 65215
329 8113 43786
330 17620 63892
331 9413 34626
332 -35 20610
333 82229 65308
334 33560 77665
335 75192 59078
336 61291 85316
337 18949 53595
338 27644 15464
339 9759 69711
340 17164 79385
341 66866 60532
342 -1453 45087
343 49534 37392
344 43803 81807
345 52569 105098
346 96013 12859
347 3684 76478
348 -2162 63936
349 11793 14154
350 15217 61378
351 51379 75763
352 38044 16593
353 10690 49122
354 70728 91161
355 18630 18910
356 59101 25575
357 38756 41989
358 64019 48515
359 57679 27667
360 32021 75288
361 21531 88492
362 5727 72503
363 6202 25222
364 35125 8888
365 2703 89683
366 41289 68544
367 25098 19298
368 55111 91789
369 21171 87631
370 48040 83645
371 51019 54239
372 962 63267
373 96477 74907
374 11074 50089
375 -1767 74425
376 43142 94335
377 9673 58929
378 61173 43205
379 62258 78798
380 36101 27217
381 6863 87348
382 -5432 66539
383 35127 54360
384 77929 64571
385 9696 40747
386 71405 74775
387 17858 97758
388 71462 58053
389 17107 37375
390 35679 97319
391 30399 59063
392 22908 51751
393 29986 93229
394 67544 57933
395 40493 98343
396 68729 83454
397 54360 53252
398 30608 46464
399 19391 66395
400 12747 84944
401 16554 72533
402 5296 79310
403 19132 16612
404 32376 52450
405 37557 71152
406 12481 104151
407 47442 95175
408 38740 11231
409 48881 89350
410 28051 97841
411 47297 65928
412 18084 56394
413 16052 16114
414 24303 45302
415 39116 34982
416 46894 92249
417 32768 79778
418 78521 75288
419 27566 83755
420 47510 29292
421 67107 62101
422 41278 38506
423 18307 45752
424 11219 44639
425 25524 83989
426 76094 53215
427 3134 82472
428 -1367 70176
429 28379 86642
430 8111 71352
431 25810 98497
432 25120 78264
433 47495 66100
434 8832 84855
435 53220 98381
436 11485 97118
437 -2948 85309
438 30234 85925
439 17591 41650
440 22332 22004
441 51890 70472
442 29475 96971
443 25971 90200
444 21967 81459
445 8712 81441
446 -768 72090
447 8422 89532
448 13511 86559
449 34693 95833
450 35609 96115
451 95386 74655
452 21403 63172
453 40387 46809
454 52409 64747
455 29187 77213
456 8639 15150
457 15088 92507
458 9584 66384
459 48408 32577
460 38796 54124
461 67918 72358
462 42670 50663
463 18024 83962
464 6672 55909
465 72998 90973
466 60837 84853
467 70599 42997
468 31429 30322
469 56189 55255
470 27249 86744
471 33379 94223
472 45152 47859
473 38060 55573
474 90691 91707
475 18303 22710
476 23860 45020
477 16975 38398
478 64325 98316
479 63437 55991
480 18219 82849
481 44335 37504
482 64495 78448
483 10075 71351
484 93712 15725
485 48239 70389
486 63290 56346
487 33941 25964
488 8755 76020
489 27758 10121
490 7661 48216
491 23472 88860
492 20995 98235
493 49062 43058
494 28101 66831
495 75244 95478
496 17895 77643
497 9042 48240
498 100837 47544
499 52335 58164
500 -3158 42796
501 22638 79029
502 27496 57934
503 14529 65030
504 9686 69124
505 60877 10719
506 6490 47485
507 88477 58742
508 14913 61369
509 24890 40790
510 65158 76548
511 23057 53051
512 53472 98711
513 42949 49120
514 55917 82300
515 -719 25905
516 59085 64546
517 47943 92344
518 -2589 66849
519 49981 12929
520 50951 49586
521 93677 36245
522 25456 94862
523 37504 47644
524 42371 68725
525 15891 64431
526 26647 46667
527 16691 70430
528 9914 49478
529 74255 65848
530 33122 31524
531 43099 83169
532 -2753 69853
533 46124 101168
534 41682 55423
535 17722 46020
536 19461 42176
537 48801 79388
538 28733 67163
539 65601 56492
540 47382 91124
541 33751 75580
542 50588 87747
543 9092 56956
544 35252 48213
545 66500 100759
546 26427 46513
547 11481 88602
548 9589 83201
549 33718 84238
550 26192 34862
551 24418 79467
552 4470 79978
553 19590 76000
554 71155 56892
555 6876 85873
556 50865 36959
557 -3799 70786
558 8183 79082
559 42307 53428
560 45714 98135
561 14835 79196
562 48877 81431
563 49173 75379
564 39241 85576
565 44283 80354
566 11744 52441
567 40954 50404
568 52921 88076
569 12167 92704
570 46000 96467
571 4968 73306
572 27549 71197
573 12826 20399
574 26328 20654
575 35518 64178
576 54986 87195
577 37756 52694
578 52236 53747
579 26372 72450
580 67028 75178
581 78060 95672
582 64874 17643
583 43021 70196
584 69744 49560
585 57416 96351
586 1730 93740
587 45756 25008
588 21134 65538
589 5459 12352
590 11196 55973
591 87029 26638
592 31849 68944
593 80725 34387
594 32843 98291
595 55294 50340
596 68335 67218
597 35664 64472
598 48114 56277
599 77505 20670
600 23453 61467
601 32143 69551
602 21434 66449
603 21592 16042
604 26528 47058
605 34139 74066
606 53585 71080
607 56531 45417
608 -6768 74328
609 17032 73513
610 68386 39928
611 29878 88968
612 26283 101033
613 27766 35693
614 36856 99735
615 42450 84023
616 8227 88527
617 13968 45324
618 54154 66037
619 55614 99934
620 31659 45707
621 76251 102142
622 50309 50534
623 66837 82371
624 55743 39687
625 52077 99895
626 46031 60322
627 27005 19658
628 100838 18210
629 11737 93407
630 14561 2429
631 5643 61446
632 31003 97216
633 54220 84306
634 22137 52171
635 58782 32485
636 23206 74563
637 39644 82119
638 16435 85287
639 29586 81789
640 8310 75025
641 24397 59112
642 10333 26806
643 54762 74599
644 25289 17058
645 61579 43181
646 32208 63153
647 10696 12629
648 65827 55544
649 75948 75468
650 42520 83911
651 70691 63733
652 27844 99262
653 4342 37248
654 45811 18108
655 66981 72826
656 17532 45715
657 79189 56163
658 11213 73110
659 27286 79718
660 45877 84775
661 88094 64095
662 19898 32247
663 34300 77633
664 18751 44705
665 32883 37682
666 1661 68282
667 63856 95370
668 -651 62772
669 60787 68407
670 28291 10046
671 71440 48339
672 60922 70964
673 30983 88892
674 6675 21806
675 1860 13524
676 70728 47019
677 45023 64032
678 9937 57003
679 10129 96648
680 29510 39766
681 18852 72071
682 55259 34750
683 7268 15314
684 38082 61795
685 84946 66584
686 97113 86413
687 10553 63137
688 36599 31580
689 26951 59398
690 34429 70519
691 52998 99435
692 17500 55160
693 46626 41203
694 -2820 91329
695 1304 66555
696 25634 86286
697 16293 88320
698 21424 83588
699 25112 51560
700 5618 89915
701 14261 30629
702 19067 60593
703 21548 12625
704 7642 65899
705 34617 15750
706 24701 63219
707 28202 49678
708 37723 99299
709 5442 50682
710 27641 27504
711 5755 28669
712 12159 93453
713 25066 92539
714 47706 103136
715 21455 100894
716 37267 69288
717 52423 41643
718 2145 68540
719 3547 85173
720 5074 82077
721 26932 65991
722 63489 10685
723 -3303 10467
724 22648 40868
725 47731 79733
726 78143 86798
727 19481 75400
728 71667 68155
729 -1217 83199
730 24746 54799
731 22276 71217
732 6099 41989
733 38590 64386
734 18003 59062
735 2774 65657
736 30953 53762
737 10883 95325
738 57849 95919
739 45394 97310
740 16727 69677
741 70654 84137
742 3747 27204
743 76944 83473
744 54538 70369
745 74140 80407
746 75636 45097
747 45928 94131
748 16672 64618
749 31475 47493
750 7534 48335
751 9550 96412
752 44221 27708
753 43211 104594
754 11632 95058
755 60325 91395
756 56587 75805
757 23951 64452
758 21805 84196
759 19210 52494
760 -2707 92271
761 11637 68558
762 24585 86836
763 49667 56805
764 38347 85255
765 24094 52988
766 30774 64245
767 46353 95269
768 67824 45175
769 21483 88616
770 55274 83218
771 15331 41872
772 11978 42080
773 9099 53834
774 32773 84318
775 57138 90121
776 82561 81710
777 27447 100238
778 55397 5641
779 32699 53521
780 39556 77703
781 22446 82115
782 56288 24556
783 49995 77555
784 33563 44621
785 -697 66204
786 52295 30727
787 35351 88445
788 37383 33439
789 27759 56177
790 18327 80065
791 41929 37912
792 51914 62498
793 13049 85346
794 52614 57950
795 2428 26804
796 32608 89725
797 14074 84411
798 14033 36523
799 58635 55683
800 2693 66969
801 45717 73581
802 56392 75102
803 48319 81552
804 13674 88721
805 33469 65446
806 14428 47001
807 26658 74995
808 39613 83312
809 31358 91874
810 37198 58748
811 63505 63376
812 33504 44192
813 4275 14493
814 79200 91428
815 39753 83907
816 5268 89624
817 61406 88070
818 65735 94076
819 77822 77694
820 64903 21951
821 75579 104565
822 62150 32877
823 36326 27354
824 67928 102100
825 22817 33139
826 14371 73622
827 43091 70359
828 4051 105554
829 59522 42001
830 24508 40228
831 -1384 77870
832 58739 24898
833 60590 79313
834 28166 90688
835 36365 31193
836 88260 34483
837 16257 30606
838 79717 75189
839 86430 50901
840 31375 58603
841 29198 74778
842 10957 47569
843 64884 50301
844 39449 52431
845 51617 33798
846 65023 80190
847 19624 63400
848 59602 71298
849 55897 45418
850 210 61565
851 73176 58673
852 56728 83273
853 66431 63220
854 42761 36661
855 66210 87759
856 51768 71501
857 57370 97722
858 46925 75423
859 16789 42151
860 27788 78447
861 9691 76799
862 49617 80625
863 35806 44333
864 5101 45401
865 68519 90893
866 48890 27719
867 44049 95522
868 67208 61757
869 2840 95223
870 18427 25529
871 55600 38644
872 24254 103032
873 37839 82500
874 51160 26212
875 43691 99689
876 53755 45037
877 27930 48367
878 48221 91500
879 34633 82414
880 8871 75638
881 54122 85166
882 5922 7621
883 57057 107584
884 33484 22542
885 93287 47311
886 23457 85921
887 8324 83477
888 53655 86970
889 16665 73714
890 87506 95751
891 6648 79696
892 37529 45946
893 5904 83100
894 75141 93636
895 44008 71352
896 50188 83001
897 54880 96659
898 13856 68490
899 7564 36653
900 9892 28184
901 62651 70010
902 24407 61441
903 21482 22210
904 23387 62242
905 64938 73382
906 6574 82367
907 46417 49469
908 59825 49003
909 27082 46390
910 17162 50026
911 37661 63630
912 57735 99833
913 30907 57346
914 28523 49939
915 -244 86731
916 27535 18648
917 13269 89880
918 46437 38281
919 32900 88607
920 40167 74557
921 78220 49920
922 41428 71187
923 28193 60758
924 44603 45215
925 18977 72452
926 12665 54583
927 72740 49430
928 18300 66689
929 88627 89455
930 32888 60091
931 58448 42974
932 63616 80568
933 83214 53600
934 15437 92235
935 42913 19224
936 40850 29530
937 10493 50928
938 66002 83108
939 21622 52347
940 -4170 70794
941 48637 77983
942 80747 51183
943 67939 54714
944 21085 38950
945 -4195 86409
946 48136 51059
947 15789 76901
948 43703 83178
949 12409 66458
950 18493 44323
951 11917 73089
952 92914 41677
953 54011 90686
954 8603 95890
955 20820 86481
956 9209 83042
957 22760 44645
958 28624 60986
959 9481 46568
960 56469 23193
961 36872 97089
962 52096 102012
963 81408 71152
964 1893 22190
965 55006 51278
966 28335 65585
967 1863 60185
968 82401 56171
969 49131 68113
970 2026 95727
971 11241 66828
972 19811 65462
973 15150 62025
974 10093 84577
975 41533 95334
976 76806 68172
977 39621 65834
978 75124 66010
979 58478 49166
980 84969 5189
981 53681 94976
982 21427 59129
983 3193 81614
984 83006 102297
985 65014 89896
986 5948 25853
987 47395 69867
988 57816 62865
989 2335 92825
990 36843 46477
991 10328 51436
992 -2928 71023
993 63287 89452
EOF
