NAME : lhk
TYPE : TSP
DIMENSION : 993
EDGE_WEIGHT_TYPE : EUC_2D
NODE_COORD_SECTION
1 80000 20000
2 2710 95403
3 29143 80794
4 10253 64868
5 12358 26497
6 43807 104928
7 61293 39550
8 35981 41328
9 15806 7406
10 45487 73252
11 7645 45943
12 27964 43206
13 61999 79686
14 22063 97189
15 5575 70535
16 22018 99257
17 26607 80389
18 7807 90603
19 64765 78782
20 46151 46394
21 26153 90667
22 27790 73817
23 32037 96913
24 57311 95270
25 64007 12531
26 94350 74399
27 47584 17159
28 53454 32437
29 22414 100144
30 72402 37302
31 31921 67917
32 8290 76956
33 17147 50097
34 84357 42422
35 23560 58286
36 56706 55557
37 25651 95223
38 24734 44068
39 35120 36675
40 1890 98491
41 54557 91034
42 26017 74651
43 73380 93357
44 61326 40280
45 20753 91054
46 67046 40291
47 10455 38999
48 -2791 52423
49 8545 81198
50 29392 43508
51 22691 88449
52 70763 81073
53 66068 98955
54 36190 99430
55 48022 63170
56 55503 33026
57 38901 58439
58 -1591 55328
59 19819 80908
60 29825 66043
61 24309 77339
62 10967 12068
63 47307 88553
64 51866 49692
65 37162 24110
66 15656 27118
67 51550 47004
68 73802 66511
69 59069 63003
70 43601 53283
71 69366 47264
72 80749 77945
73 34339 98187
74 23976 83955
75 4529 26688
76 3415 81607
77 16181 81148
78 -2335 58481
79 23138 38778
80 27517 60028
81 42533 64844
82 24037 62429
83 39717 87428
84 77598 69768
85 54200 52837
86 54893 52861
87 6307 28587
88 9148 26630
89 17546 85073
90 33723 57675
91 -3137 80651
92 52462 75174
93 34460 90591
94 9279 95433
95 53430 76650
96 8720 91021
97 34035 81670
98 7159 71771
99 94702 29888
100 16883 78536
101 12083 49824
102 47824 55261
103 68898 57333
104 59742 -492
105 35800 64540
106 42319 92535
107 5655 95284
108 99921 51193
109 11636 88015
110 51595 78111
111 71939 65940
112 43512 23670
113 58888 72355
114 6128 77630
115 18472 73662
116 8836 90124
117 -9502 56406
118 64452 39750
119 59449 90449
120 9755 60476
121 30657 92178
122 24046 37192
123 5433 51164
124 10940 45516
125 31379 77633
126 24929 31955
127 48564 77253
128 40295 52470
129 -413 46856
130 33756 87192
131 19598 72082
132 11157 58230
133 24562 61937
134 3827 29729
135 48500 80607
136 75838 102664
137 87656 53031
138 35852 66345
139 9082 101518
140 37633 103215
141 42435 84711
142 42878 82534
143 22156 47438
144 69604 51698
145 50363 69722
146 67419 86187
147 28564 95101
148 36988 53870
149 21366 45758
150 70564 105244
151 31189 91051
152 30707 42014
153 61864 71078
154 3764 89256
155 9653 45324
156 43132 42437
157 48622 95602
158 -6770 43299
159 72893 90594
160 76572 95818
161 32263 31529
162 52618 58895
163 15479 73220
164 47261 62414
165 41380 31724
166 48717 90557
167 11417 50929
168 38019 83317
169 17231 76099
170 8292 83607
171 84228 62370
172 46170 65096
173 34379 90982
174 56960 59583
175 18111 48037
176 41878 65273
177 62881 11544
178 73243 92573
179 6317 81609
180 51504 83327
181 30877 55662
182 39925 103304
183 8171 46098
184 16170 80370
185 7466 79519
186 60396 96594
187 56970 59201
188 -2566 18438
189 55294 55513
190 36180 68509
191 57293 59676
192 42011 40719
193 7139 56047
194 46596 83358
195 35780 42058
196 83071 45494
197 11484 54844
198 45912 30158
199 77899 63011
200 12424 94792
201 9464 100116
202 74606 61660
203 54549 96699
204 5481 81508
205 90590 80848
206 23932 27801
207 38733 101315
208 -3012 74696
209 56731 79226
210 47833 31528
211 39553 61069
212 12480 13659
213 6155 46569
214 1604 104305
215 8005 51849
216 35821 77169
217 50762 62663
218 58876 44442
219 2156 55784
220 3568 61500
221 30181 73837
222 23880 21926
223 10284 45758
224 32227 79010
225 -3293 77751
226 49229 69266
227 32211 74878
228 16117 99899
229 21900 34507
230 57240 75185
231 43083 90840
232 36854 88719
233 67197 34482
234 30797 50088
235 1167 67227
236 45238 66805
237 7843 94228
238 38627 47341
239 58864 62897
240 44507 94025
241 2784 86736
242 42101 87392
243 77505 53723
244 95406 3403
245 27400 87026
246 63529 83332
247 21688 18197
248 6323 97592
249 55786 75099
250 22020 89931
251 45962 30647
252 68563 98091
253 34144 83293
254 36690 90965
255 17423 9505
256 8284 69233
257 43483 90416
258 40462 34946
259 5234 29208
260 50322 95893
261 84159 11855
262 42576 17200
263 60960 48896
264 7526 90584
265 52069 60903
266 44495 93770
267 22957 74175
268 19724 61716
269 19545 25748
270 30204 60639
271 37011 76359
272 33639 94966
273 8003 75625
274 68467 94382
275 82406 36375
276 14094 69170
277 47244 34154
278 5725 65975
279 28526 36279
280 16491 53182
281 50790 79022
282 55244 63831
283 50241 57926
284 15655 32521
285 17747 19670
286 64434 99213
287 48596 63619
288 39509 9762
289 23081 85943
290 47675 30593
291 66526 71803
292 43392 61533
293 40435 79310
294 52595 60687
295 44237 77280
296 58137 20603
297 34529 85554
298 62939 74004
299 12995 70563
300 5195 31827
301 164 84912
302 4504 96883
303 29853 49585
304 8167 45957
305 17103 86379
306 53990 98979
307 26827 98677
308 37190 23962
309 39920 76054
310 40158 95498
311 39130 17478
312 90113 71899
313 2147 41479
314 56012 92853
315 62032 47966
316 56569 80250
317 11491 87204
318 58824 79093
319 70285 99648
320 39646 80925
321 50388 86517
322 17698 82445
323 75206 95136
324 70261 40655
325 24683 53572
326 12847 85052
327 13392 76196
328 22173 74481
329 -1464 35710
330 20504 61791
331 3322 30508
332 1053 29744
333 80963 69422
334 20667 80485
335 86390 57668
336 46710 85730
337 12604 61415
338 32685 16377
339 10211 66209
340 15467 75389
341 66396 62206
342 12642 45013
343 43819 46826
344 38788 88250
345 55707 105034
346 101003 10833
347 8469 71808
348 -2598 57292
349 20204 22420
350 23467 64597
351 53229 70694
352 31996 10419
353 14516 52636
354 79998 86797
355 21064 24506
356 56494 29724
357 41698 36989
358 53415 39390
359 62241 39129
360 28228 62349
361 16151 88786
362 17539 75689
363 259 19476
364 24351 17965
365 12305 99491
366 34392 64486
367 16423 12865
368 53265 93942
369 18237 83604
370 56317 80009
371 48528 49522
372 792 61929
373 96254 80006
374 19718 52506
375 14228 86544
376 52084 93223
377 11760 58164
378 61452 37138
379 57568 90067
380 36949 29050
381 14782 93336
382 5766 64168
383 20773 58651
384 75350 62691
385 13718 42855
386 75137 79996
387 9307 91727
388 91423 51305
389 31283 45195
390 45810 90681
391 21498 63706
392 14639 51476
393 37483 85504
394 67951 66999
395 49359 90516
396 57865 76579
397 58485 49730
398 28682 33637
399 16820 66214
400 17953 85810
401 13943 77031
402 283 84318
403 24873 21796
404 30391 40379
405 37252 60287
406 6951 96622
407 45442 76321
408 33169 14642
409 49021 90901
410 27234 104189
411 33091 65051
412 23687 66412
413 2241 27709
414 33102 36056
415 23659 31750
416 55142 88271
417 30159 87777
418 66042 78213
419 15401 92857
420 44265 25291
421 67546 57945
422 45236 25340
423 24911 66206
424 9092 39756
425 16252 85214
426 77228 55741
427 1629 85087
428 6764 80317
429 18851 87862
430 8297 80209
431 32310 92142
432 13461 84733
433 64737 76963
434 12711 74876
435 64212 102566
436 6347 97656
437 11092 80048
438 35272 92830
439 29388 41564
440 27237 19579
441 57558 64509
442 19726 96098
443 13308 92784
444 24106 75564
445 6832 84600
446 5696 72058
447 7962 81663
448 4179 89002
449 44220 91943
450 44558 91572
451 90102 78954
452 16305 53135
453 51529 44080
454 47086 65892
455 27419 76190
456 6470 23595
457 17707 102926
458 8576 76742
459 47941 46446
460 32236 58587
461 58614 66421
462 40507 63399
463 5752 94890
464 8819 47730
465 63191 94795
466 66660 88460
467 71819 47451
468 35939 24466
469 59235 60352
470 15870 91139
471 34900 91082
472 44514 57621
473 45239 58103
474 89444 87853
475 19791 14848
476 32179 40141
477 17409 43527
478 67012 91859
479 62780 68230
480 12466 76106
481 35692 34817
482 63323 82528
483 19629 72097
484 90092 808
485 37901 63716
486 73448 56421
487 22577 36326
488 8655 79604
489 29705 3377
490 4778 49280
491 25040 81346
492 14405 100429
493 42433 45164
494 23204 53900
495 76812 82820
496 14719 97201
497 26588 48068
498 96838 54392
499 50255 52390
500 443 47092
501 16350 77096
502 27309 66678
503 3427 71798
504 9992 69838
505 65030 23975
506 10352 52578
507 87610 58671
508 27709 55534
509 24618 39953
510 61865 65118
511 29744 45758
512 56456 96861
513 35441 43432
514 51157 67519
515 2918 29000
516 52459 57161
517 48987 89854
518 8209 62161
519 41343 11075
520 58866 41071
521 93059 46239
522 19659 101782
523 34723 50208
524 39353 77871
525 17031 61494
526 26695 46040
527 19555 64472
528 1349 62593
529 88074 81463
530 32698 35616
531 55627 76096
532 8941 67090
533 40932 106580
534 45349 56460
535 12844 48330
536 27682 44632
537 57554 89472
538 27746 78275
539 58296 65786
540 42594 83977
541 36643 79208
542 57342 106282
543 12258 48222
544 23422 40729
545 74100 88590
546 29965 57800
547 6441 76175
548 1697 88498
549 31192 90869
550 25689 38209
551 23437 81752
552 7535 80234
553 22332 62118
554 62573 54919
555 1152 83721
556 53330 19501
557 6158 80259
558 16194 97752
559 45692 52872
560 44066 96915
561 8788 88952
562 35160 89467
563 49509 83842
564 38732 78631
565 47664 79175
566 11500 58936
567 45585 38736
568 54775 87757
569 12143 96663
570 33513 92878
571 6129 78429
572 23561 76483
573 13421 35522
574 43044 12151
575 27233 69843
576 47554 84101
577 43439 62999
578 52262 63505
579 21467 79908
580 65684 70388
581 74314 99785
582 64998 29297
583 50749 72889
584 67494 54693
585 54161 102593
586 -3487 101099
587 43390 31821
588 28363 66599
589 9343 17706
590 5777 58578
591 92615 36809
592 29222 78972
593 81065 43749
594 20167 100449
595 46500 45186
596 68605 72672
597 35853 66707
598 53216 51395
599 55838 20672
600 24603 63426
601 30285 63947
602 28097 62919
603 28309 27804
604 31244 57363
605 27016 71373
606 49231 64295
607 58606 41639
608 4115 78433
609 14972 78998
610 80114 34389
611 26079 93744
612 24979 99746
613 20877 32456
614 41759 99035
615 39122 78271
616 4016 80481
617 12546 41948
618 55592 62396
619 53089 91451
620 39392 52698
621 66724 97270
622 44724 56745
623 67245 89003
624 45832 46210
625 52390 97692
626 54482 54761
627 32405 20083
628 106712 19030
629 8486 85611
630 19940 7918
631 21524 75207
632 16080 98151
633 58294 71510
634 24254 51730
635 61876 40616
636 19770 73985
637 42003 75736
638 8073 96123
639 31303 89548
640 177 72882
641 27707 65609
642 21705 16883
643 57201 85267
644 24225 18527
645 62987 39399
646 27391 54186
647 -2074 11317
648 70689 68037
649 86334 72086
650 31609 76447
651 66446 64089
652 14988 86917
653 -563 52487
654 45693 25915
655 76666 75143
656 22008 42801
657 64760 49768
658 -2661 77381
659 15650 76743
660 46502 80843
661 92352 73936
662 21296 20457
663 33937 66334
664 13866 37919
665 27372 46803
666 3672 71126
667 73650 91975
668 5660 74512
669 60249 67453
670 23908 20299
671 71703 43374
672 50887 72957
673 29782 100390
674 17288 34152
675 8538 15627
676 63335 46699
677 48081 65078
678 12106 56677
679 5732 94783
680 38959 33937
681 12836 67787
682 52202 37610
683 3186 10870
684 40765 60748
685 87175 56734
686 91699 86495
687 -57 65283
688 20626 43307
689 25989 51165
690 34970 77125
691 55391 96138
692 16206 58577
693 36970 39112
694 -436 91959
695 10532 72771
696 16605 86682
697 21434 83139
698 29884 77953
699 27946 58170
700 15021 91591
701 15462 39452
702 19155 72383
703 20472 16843
704 5007 62566
705 28517 25424
706 23071 57228
707 33508 34303
708 35318 92638
709 4069 60544
710 23020 17044
711 16915 23962
712 13735 85658
713 17797 92511
714 44584 91924
715 23870 101579
716 35949 63862
717 50152 41126
718 1260 67822
719 -4656 89329
720 6116 86091
721 24344 66660
722 69896 9607
723 891 3444
724 24349 32946
725 43397 72957
726 77262 86088
727 19669 82880
728 60767 70621
729 4519 75238
730 22297 55842
731 18444 74053
732 15571 46842
733 33842 63946
734 31536 64953
735 3546 65278
736 19693 65421
737 1059 79991
738 57231 93187
739 44359 89106
740 20001 63055
741 88050 74580
742 11038 19903
743 78047 84593
744 40991 64890
745 68643 75656
746 75459 39816
747 49657 95453
748 14899 54524
749 26019 50932
750 8035 38452
751 13596 91199
752 53410 32685
753 30570 91374
754 13495 101572
755 51534 98122
756 44913 71412
757 27698 57946
758 26063 80092
759 7526 51447
760 10779 84619
761 11576 66021
762 15490 90902
763 65042 64840
764 43081 90947
765 12052 69692
766 39236 63661
767 33039 92938
768 66624 55541
769 18443 94889
770 45064 76765
771 9989 40559
772 19452 49933
773 17348 61657
774 37421 80041
775 47745 92748
776 82830 84411
777 16829 101644
778 66505 11939
779 35812 54647
780 54950 65891
781 12676 79557
782 57731 38605
783 48709 72258
784 30181 54168
785 7053 61704
786 53234 26181
787 37115 91419
788 30063 28017
789 25898 64723
790 25564 73672
791 40119 39373
792 52542 62947
793 -6695 80981
794 56589 56580
795 8207 31394
796 22449 93917
797 14747 74657
798 18133 38636
799 45355 61100
800 3868 62503
801 63555 83288
802 70114 80702
803 49886 82248
804 2742 100431
805 41696 62903
806 4258 62136
807 31252 83556
808 44106 87715
809 29466 85895
810 29694 63027
811 62152 57670
812 33206 31899
813 10231 7518
814 78119 97243
815 44979 89957
816 16400 84562
817 59491 83036
818 61058 97432
819 70751 76046
820 52763 22166
821 81871 87040
822 54779 30815
823 33842 33470
824 72668 96151
825 31489 26961
826 16137 74899
827 42510 72876
828 2012 94942
829 58413 32956
830 22026 32986
831 9304 71677
832 53266 24111
833 63276 84794
834 25457 92666
835 42072 23449
836 83612 38307
837 16937 30758
838 75990 83375
839 90033 51926
840 32781 53030
841 40165 80504
842 976 47897
843 53583 46492
844 54062 54086
845 50440 40879
846 64028 94062
847 31280 68126
848 51837 72673
849 50499 53590
850 116 53591
851 73165 55357
852 60917 89869
853 73333 61309
854 32159 35912
855 75266 91582
856 50775 63057
857 54877 96504
858 47741 68329
859 9180 45792
860 27367 79045
861 723 82515
862 45769 75717
863 38189 43879
864 7871 47404
865 81581 86574
866 44076 28652
867 43776 94244
868 68239 65765
869 -3441 90121
870 29147 34140
871 53185 47251
872 21877 94628
873 30801 71291
874 51464 25191
875 36433 103753
876 48680 47050
877 42338 44397
878 34446 88499
879 28314 69708
880 11411 66751
881 51613 82945
882 9171 8742
883 55639 96563
884 25547 18417
885 82999 51328
886 25793 89794
887 24556 75758
888 57661 94956
889 22066 66610
890 85603 80871
891 -5252 75388
892 32489 47054
893 10911 78892
894 78290 93945
895 42849 71314
896 58072 80992
897 61741 90502
898 26704 69327
899 -4858 30891
900 25128 18099
901 68337 60188
902 24205 72289
903 17559 24331
904 26039 59014
905 64322 75254
906 12519 81739
907 50232 41476
908 62432 58423
909 23373 45446
910 12499 46819
911 37680 77471
912 58942 90637
913 28643 68144
914 31294 49448
915 7646 97278
916 28837 27308
917 14895 86321
918 48671 45421
919 28815 87218
920 42647 90093
921 79509 49306
922 47245 76657
923 36197 55267
924 57527 60993
925 18787 71953
926 3455 57118
927 59861 47219
928 23029 76518
929 87317 99241
930 28949 60624
931 66467 40768
932 56397 87499
933 84024 56224
934 18674 93907
935 41960 16795
936 45566 35989
937 20503 51959
938 65748 85833
939 9927 48660
940 -8126 65406
941 53269 72928
942 72832 59275
943 64873 57719
944 23797 18523
945 -1077 83315
946 54117 52295
947 18866 72305
948 56252 94925
949 8273 72427
950 19608 44270
951 24251 74626
952 94235 50657
953 59672 95752
954 935 91868
955 28226 83867
956 13900 70542
957 31829 56885
958 27745 64466
959 7119 38894
960 62446 25259
961 40980 96779
962 49328 99348
963 73995 80621
964 -5357 27131
965 55421 65013
966 26969 56834
967 866 64683
968 77578 52672
969 60963 71750
970 -473 87527
971 10124 74058
972 34314 73672
973 12703 56578
974 23253 93548
975 35555 110795
976 72812 78122
977 31555 72979
978 81226 50803
979 59479 47276
980 80286 5323
981 56603 91675
982 16447 67582
983 16241 84991
984 81562 102940
985 59591 91792
986 17787 27712
987 48657 72722
988 64234 83505
989 3232 107481
990 38836 53473
991 3512 47010
992 -2753 73161
993 57480 95231
EOF
