NAME : lhk
TYPE : TSP
DIMENSION : 117
EDGE_WEIGHT_TYPE : EUC_2D
NODE_COORD_SECTION
1 47128 11965
2 45128 9950
3 47511 9132
4 58458 8149
5 59435 8052
6 60205 3389
7 54454 2150
8 57948 2346
9 52169 1806
10 51342 1728
11 48332 1274
12 46081 -4901
13 44418 839
14 36556 4686
15 30196 6513
16 30330 2931
17 26776 1183
18 19650 1301
19 19424 20155
20 19562 24245
21 21655 29598
22 28115 30746
23 35407 32576
24 32696 74392
25 27085 75159
26 25928 71194
27 18968 67156
28 18223 70828
29 14787 70615
30 8690 68023
31 7019 67406
32 4757 67782
33 5463 72152
34 -2006 91357
35 -4098 96858
36 3226 93691
37 8049 91617
38 29180 95891
39 28832 92531
40 31006 90249
41 35262 89051
42 36349 92525
43 38876 93609
44 37149 96039
45 34316 101888
46 34309 103417
47 33370 108093
48 35387 107293
49 37335 102340
50 41625 103845
51 46057 101486
52 48132 104844
53 96281 98502
54 102883 97413
55 102803 95489
56 97219 91637
57 97588 90124
58 94577 87433
59 95449 84326
60 91121 81172
61 91212 79919
62 90790 78471
63 91812 77556
64 93502 77274
65 94691 72338
66 102061 67763
67 99043 61392
68 96186 54644
69 96772 52500
70 98736 51719
71 100126 51183
72 102631 50228
73 105901 48951
74 101219 44737
75 99670 44004
76 97271 38711
77 104969 33955
78 104063 32686
79 104222 29080
80 104056 25183
81 99640 28437
82 95266 29256
83 95067 28923
84 94601 30995
85 91168 35746
86 89503 35905
87 88109 40668
88 89078 46561
89 85962 50048
90 83148 50758
91 80321 51437
92 75908 55439
93 73781 57284
94 70177 57854
95 67583 51242
96 69529 49619
97 70312 47954
98 77494 44921
99 75325 42548
100 71341 37773
101 74185 32674
102 73796 28817
103 69820 27860
104 64295 23646
105 62276 33005
106 58126 34935
107 53241 35817
108 51626 37191
109 45993 36065
110 44706 30193
111 51012 30381
112 51399 28635
113 50280 26207
114 53544 24030
115 53611 21176
116 52479 17811
117 46571 16297
EOF
