NAME : lhk
TYPE : TSP
DIMENSION : 142
EDGE_WEIGHT_TYPE : EUC_2D
NODE_COORD_SECTION
1 80000 20000
2 64639 20580
3 67473 15247
4 55718 37430
5 54283 35462
6 54183 34207
7 44017 36916
8 36384 51188
9 33867 40493
10 34315 25425
11 32975 34466
12 34384 30968
13 33047 26187
14 34469 21315
15 37305 16661
16 34495 24211
17 27326 20916
18 19247 18574
19 12547 15756
20 12180 15394
21 11452 20779
22 11100 24315
23 26579 15703
24 11371 39737
25 11926 53052
26 11740 53012
27 11729 66888
28 14815 52749
29 11711 71927
30 8619 71888
31 11730 70260
32 10669 72944
33 12142 82064
34 11689 73872
35 11674 75177
36 11720 71199
37 11683 74367
38 12278 81340
39 11422 85882
40 10608 90202
41 11255 91004
42 15996 89806
43 19498 87052
44 19040 88995
45 25165 89728
46 24995 86480
47 23374 87570
48 33218 88205
49 31479 88140
50 30759 88218
51 19040 88995
52 32515 71255
53 50573 68108
54 27427 59038
55 39507 72949
56 40209 88467
57 35801 88301
58 49630 87789
59 40853 88275
60 43423 88107
61 34058 88236
62 42119 87898
63 43340 90021
64 45965 89545
65 50901 88065
66 50881 88147
67 50381 88549
68 49772 88057
69 51378 88168
70 52065 87900
71 54752 87682
72 47574 87345
73 48799 75063
74 65778 83146
75 69161 87681
76 62375 78046
77 56777 68714
78 50773 70662
79 56460 83991
80 50011 76963
81 25813 74083
82 25569 73871
83 16859 89211
84 29762 71277
85 15577 45176
86 11345 38235
87 30785 50351
88 41958 51238
89 29671 57093
90 37207 51432
91 29761 53053
92 29671 57093
93 47644 71780
94 29671 57093
95 30038 57502
96 28196 60862
97 29484 71215
98 30353 70286
99 29025 71278
100 41209 73773
101 29108 71130
102 41657 73851
103 42351 73971
104 51917 69290
105 37131 72930
106 60870 53943
107 61418 60707
108 51290 68738
109 61073 69415
110 68400 64643
111 80145 69101
112 86091 77985
113 86144 79468
114 86496 79498
115 77609 85398
116 76745 88710
117 78187 90255
118 67981 86188
119 68586 86362
120 54583 48657
121 44896 51658
122 51210 52902
123 65605 53365
124 51988 48035
125 52967 47637
126 46497 51886
127 63227 54907
128 63852 55038
129 57087 50744
130 63152 48246
131 70254 66691
132 63123 52280
133 85115 56094
134 85079 51851
135 86472 45792
136 85146 42919
137 84987 43615
138 85582 38963
139 79057 33259
140 83777 20627
141 84506 18214
142 85848 17182
EOF
