NAME : lhk
TYPE : TSP
DIMENSION : 153
EDGE_WEIGHT_TYPE : EUC_2D
NODE_COORD_SECTION
1 80000 20000
2 56244 19983
3 62028 15614
4 32968 20832
5 35408 15562
6 27951 21075
7 34336 20766
8 23775 20948
9 30553 20949
10 11810 27310
11 9880 16516
12 12799 15772
13 12267 21794
14 9382 21425
15 8502 21677
16 11814 27150
17 31227 86117
18 32126 89985
19 38777 73513
20 32768 89776
21 22272 89939
22 26305 85843
23 26176 87875
24 21169 89988
25 10432 89482
26 10873 82221
27 10439 89990
28 11005 80049
29 22886 89987
30 10935 81206
31 11701 89990
32 9138 88827
33 11246 76095
34 10616 86456
35 11323 74823
36 13588 71334
37 11834 70360
38 11354 74317
39 11909 65193
40 11450 72738
41 10133 48704
42 12079 64973
43 23887 68142
44 23724 68281
45 19778 67786
46 10969 80645
47 22513 68785
48 18138 61272
49 10507 47002
50 9405 47476
51 8882 49650
52 11407 43644
53 13022 46575
54 22611 60899
55 25755 45644
56 22513 68785
57 15338 63035
58 14714 45482
59 11407 43644
60 11793 27978
61 28539 43126
62 25469 42957
63 28818 46629
64 31912 49299
65 38345 41291
66 35030 39710
67 37906 40943
68 50051 38216
69 50411 34755
70 51767 37658
71 56073 38424
72 52294 38219
73 52868 38970
74 47329 66949
75 52294 43597
76 54177 50244
77 65364 68185
78 47051 66023
79 47298 66289
80 50046 60829
81 43095 60727
82 37429 63111
83 34914 64469
84 37434 64647
85 50488 61414
86 56088 65885
87 57848 74708
88 57888 76471
89 45230 67166
90 55209 76998
91 39940 88541
92 40555 87874
93 47035 76513
94 44441 73870
95 33590 71866
96 30906 69947
97 47490 67486
98 33415 72159
99 36456 67090
100 30030 63049
101 44870 62357
102 25801 59976
103 28539 43126
104 31899 70857
105 30830 63630
106 22513 68785
107 35471 87139
108 20922 65401
109 22513 68785
110 26895 74695
111 62914 73044
112 54682 89125
113 67819 71416
114 68492 89162
115 59868 86655
116 67264 65225
117 67853 64825
118 71116 64886
119 69152 68557
120 69654 66548
121 74026 66936
122 83686 79299
123 80827 84313
124 83852 85334
125 85659 83105
126 85991 82957
127 84011 82788
128 79502 89191
129 72297 89172
130 51678 89118
131 53812 89553
132 59085 91785
133 67943 72800
134 54493 89125
135 42869 89095
136 52500 89120
137 48352 89109
138 36602 89831
139 38442 89084
140 29113 89986
141 29249 89928
142 25840 56574
143 33035 28134
144 63709 43211
145 73023 55870
146 71342 70254
147 77925 50694
148 73699 52053
149 86753 47891
150 85837 50958
151 86581 39855
152 86268 17591
153 85505 16816
EOF
