NAME : lhk
TYPE : TSP
DIMENSION : 141
EDGE_WEIGHT_TYPE : EUC_2D
NODE_COORD_SECTION
1 80000 20000
2 85447 16750
3 84778 23130
4 81083 30396
5 74559 45230
6 74609 46719
7 78311 59840
8 83921 55822
9 76396 59111
10 56855 63982
11 75714 78578
12 76299 60913
13 77831 83271
14 73040 82091
15 82064 79964
16 85994 83160
17 66816 88562
18 85012 82743
19 84351 85223
20 81420 88099
21 68471 88528
22 77989 88332
23 70954 88477
24 57332 88755
25 51056 88883
26 56152 71867
27 63694 88626
28 51641 88871
29 54655 87200
30 48561 88208
31 49433 88595
32 45750 89469
33 29808 88062
34 34528 82331
35 33194 88082
36 44589 88147
37 44673 88196
38 17713 57393
39 19420 64732
40 20601 43144
41 31402 25275
42 34927 15204
43 33056 16034
44 28893 21022
45 28115 17554
46 28051 17560
47 14181 13820
48 12805 19265
49 24226 14941
50 13116 17030
51 13404 15163
52 12272 27440
53 12612 26333
54 12185 31105
55 11957 55028
56 12563 50007
57 11933 44435
58 11961 56988
59 11937 46147
60 10272 46271
61 11952 52670
62 7920 50643
63 11945 49679
64 11959 55928
65 11927 41904
66 11969 60596
67 11823 60281
68 16665 60793
69 25176 69478
70 35332 88094
71 20685 66696
72 23549 71385
73 16376 81868
74 22821 70193
75 22675 70026
76 13005 61276
77 10287 74255
78 9774 82156
79 16639 73925
80 9812 77372
81 11967 59676
82 9823 75991
83 9664 76023
84 10080 76512
85 9776 81886
86 7972 81654
87 9784 89312
88 10256 89839
89 24066 88029
90 13578 87969
91 12327 88685
92 26840 88045
93 24584 88032
94 25658 88349
95 29139 90825
96 26575 88043
97 35123 87874
98 36780 88102
99 26867 22061
100 31270 40309
101 30658 39751
102 31283 39333
103 29239 41993
104 31242 39710
105 29451 41267
106 29415 42872
107 30823 41693
108 31929 49218
109 43319 66666
110 32076 49414
111 41875 69236
112 36604 49661
113 43262 68145
114 31850 49112
115 44108 58767
116 26354 70195
117 43330 66400
118 43168 70566
119 52249 88858
120 50177 81757
121 56182 71852
122 50652 74625
123 56395 68195
124 75810 79006
125 55445 73068
126 57057 61616
127 56970 55678
128 65736 56469
129 47663 45546
130 55955 56444
131 55062 34064
132 50207 60778
133 32830 34920
134 46853 46803
135 48217 44687
136 56327 32100
137 55977 31566
138 58134 30336
139 53678 36213
140 66480 16347
141 69762 14094
EOF
