NAME : lhk
TYPE : TSP
DIMENSION : 171
EDGE_WEIGHT_TYPE : EUC_2D
NODE_COORD_SECTION
1 80000 20000
2 62174 15838
3 52268 36989
4 50065 34745
5 58064 15621
6 50614 28668
7 54508 32765
8 51417 48659
9 72324 45194
10 50098 35838
11 66030 44022
12 50441 36020
13 51140 36554
14 48634 41160
15 45317 43982
16 61719 61844
17 65789 48249
18 65625 45735
19 61089 46369
20 69313 45243
21 56879 39352
22 61686 59353
23 61603 61840
24 60582 63440
25 55459 74261
26 24094 88261
27 26100 87411
28 23015 88773
29 29450 89180
30 14134 89547
31 26363 88985
32 11621 89150
33 14291 91897
34 12442 89694
35 10628 90238
36 23015 88773
37 17992 87502
38 12266 68440
39 13354 71950
40 28035 73360
41 16370 85407
42 12001 84051
43 12198 68740
44 12793 78239
45 12153 72764
46 11715 75712
47 12695 66556
48 12195 66939
49 12158 72825
50 11392 72268
51 12343 61451
52 12719 66454
53 28035 73360
54 12198 68740
55 11203 65355
56 14361 50443
57 12270 52249
58 8919 56178
59 13230 64788
60 13937 61174
61 35436 89352
62 40321 88348
63 39698 90563
64 45843 88928
65 40456 89562
66 37093 89333
67 35976 87024
68 28034 73362
69 21463 74203
70 41288 77060
71 29180 68494
72 33796 57902
73 32821 58515
74 35233 58349
75 35924 60141
76 34297 64519
77 35557 66817
78 37610 56463
79 35956 66813
80 44236 62839
81 46275 68200
82 52207 72167
83 49147 80165
84 51808 84371
85 49524 86139
86 49759 88378
87 53176 86721
88 50695 88193
89 47652 88715
90 51735 88169
91 55823 85447
92 56277 84875
93 48077 88665
94 55423 87246
95 67271 86400
96 48270 88642
97 37885 68806
98 43601 66511
99 45840 52474
100 49574 55669
101 41860 53539
102 40879 53253
103 22176 53899
104 28153 58967
105 25174 51174
106 32541 44481
107 34324 45209
108 37374 35887
109 32170 44819
110 37338 40043
111 22611 35512
112 18658 45922
113 22090 35821
114 21116 54861
115 28003 56059
116 47489 34454
117 28095 36785
118 29636 27978
119 27639 15552
120 36781 19184
121 27433 35767
122 39356 15579
123 31845 15562
124 26218 15548
125 40816 15583
126 30226 15558
127 32580 16146
128 11980 15517
129 11012 16040
130 12361 22896
131 11868 28637
132 11793 37296
133 11904 24437
134 11837 32258
135 16814 38942
136 15485 35029
137 13002 34198
138 13737 33728
139 12246 33100
140 11758 41316
141 11224 42067
142 11725 53070
143 12490 52610
144 13673 47948
145 54335 74736
146 67441 77490
147 79092 88141
148 67304 84655
149 73587 87990
150 64041 80250
151 72750 87978
152 80554 88181
153 80821 88391
154 86210 79256
155 86095 81262
156 81195 78081
157 80368 72692
158 81292 62176
159 83007 62190
160 83930 59600
161 64609 63780
162 83574 65251
163 83206 62959
164 79695 37882
165 70496 45683
166 82237 63868
167 71056 53532
168 68655 44998
169 84107 37114
170 88908 19449
171 84348 17843
EOF
