NAME : lhk
TYPE : TSP
DIMENSION : 139
EDGE_WEIGHT_TYPE : EUC_2D
NODE_COORD_SECTION
1 80000 20000
2 61752 15158
3 61745 15208
4 46284 17104
5 46584 15626
6 29071 23269
7 32821 20945
8 30356 22178
9 32538 27146
10 75423 46144
11 54105 38034
12 51580 38495
13 54191 37721
14 53205 36324
15 40075 41241
16 46826 38714
17 42780 49267
18 41829 43254
19 27242 46548
20 31240 38070
21 40238 44872
22 40809 44630
23 40730 43670
24 29229 47287
25 29341 58369
26 43127 44795
27 54096 57507
28 43303 57340
29 52183 57052
30 52572 55512
31 57081 60885
32 59604 63891
33 59388 63956
34 62788 62321
35 68154 83727
36 65891 64808
37 70310 66547
38 77804 66662
39 71366 74103
40 77425 71905
41 83846 81002
42 86085 81338
43 75698 89147
44 76650 91997
45 75698 89147
46 56228 88047
47 67866 92107
48 68646 85690
49 52271 88562
50 66285 88319
51 60505 86243
52 63492 87583
53 53865 86875
54 53806 87516
55 55006 87882
56 52271 88562
57 50843 77095
58 56228 88047
59 50789 76662
60 46214 77819
61 41984 89782
62 40622 80034
63 39339 89761
64 38129 89453
65 24033 87934
66 27269 88873
67 24482 88492
68 38624 89700
69 24033 87934
70 24482 88492
71 23552 87188
72 20111 81468
73 15544 88205
74 9927 72089
75 10043 86892
76 9870 88454
77 10419 90010
78 11035 75592
79 10883 79338
80 12902 68863
81 10663 70560
82 11869 68041
83 11043 74878
84 11301 68511
85 11264 68578
86 23350 86902
87 10866 84412
88 17150 85169
89 21820 70564
90 24109 69580
91 23653 67632
92 19881 65570
93 25415 65260
94 32338 68038
95 22401 67254
96 22499 65823
97 31501 67986
98 36023 59909
99 24218 44261
100 17794 49990
101 24985 45703
102 11338 50468
103 22310 45963
104 27407 52809
105 21823 51730
106 10832 68408
107 11310 59973
108 11332 49635
109 11044 59982
110 11321 48179
111 14615 39505
112 12653 21844
113 15122 19501
114 16848 18309
115 11976 15695
116 12929 15985
117 12122 15431
118 18510 37163
119 11310 46749
120 11297 44943
121 10596 45720
122 26396 23763
123 13721 33160
124 12338 30969
125 27744 44090
126 38881 65916
127 41652 71894
128 46205 67173
129 43059 66921
130 43713 66429
131 43015 68646
132 27029 86239
133 68753 43201
134 61299 41022
135 67393 41728
136 82394 48800
137 85704 51159
138 85842 34221
139 86268 17591
EOF
