NAME : lhk
TYPE : TSP
DIMENSION : 156
EDGE_WEIGHT_TYPE : EUC_2D
NODE_COORD_SECTION
1 80000 20000
2 86671 17949
3 84789 17813
4 84667 37761
5 84489 37821
6 79772 45778
7 84744 52959
8 83239 54847
9 71889 56850
10 79772 45778
11 56933 53347
12 72832 53993
13 59530 64497
14 67755 58680
15 58843 72566
16 68379 75569
17 63175 82002
18 51765 88298
19 56407 88287
20 55563 87806
21 47093 88308
22 47078 88873
23 51765 88298
24 75254 81202
25 79520 79857
26 83291 81337
27 86017 82049
28 80865 87988
29 79271 89356
30 75724 88246
31 62121 77863
32 59426 85631
33 60711 87994
34 50901 79369
35 51691 79805
36 46120 83772
37 52622 75796
38 49907 59596
39 15029 48245
40 13173 50096
41 12072 50381
42 12273 51113
43 11256 32009
44 17713 51422
45 14528 49129
46 7821 45868
47 11177 30977
48 11178 39126
49 11176 27465
50 12110 51283
51 11176 22938
52 7691 30626
53 11176 28228
54 14535 25531
55 12364 16850
56 11175 16110
57 11134 15980
58 11650 19983
59 14304 17966
60 36117 17799
61 36950 16489
62 34671 20589
63 30470 25593
64 31063 26540
65 22350 50415
66 31990 24471
67 33468 48003
68 27947 27718
69 19662 30013
70 24739 31182
71 14436 37953
72 29897 34687
73 33042 48159
74 41168 46930
75 32594 48322
76 35240 47356
77 50274 45135
78 52072 55071
79 58071 43790
80 48099 35773
81 56720 42403
82 48108 35695
83 51804 36481
84 48099 35773
85 48064 35628
86 52259 34641
87 58071 43790
88 59792 35295
89 48110 35683
90 52039 54969
91 72832 53993
92 52039 54969
93 51846 54978
94 33867 66787
95 46598 66864
96 33867 66787
97 46598 66864
98 30214 86134
99 46598 66864
100 33867 66787
101 32972 67214
102 28219 65045
103 22827 68345
104 24719 68007
105 33867 66787
106 29185 52119
107 29020 52609
108 23236 55178
109 22827 68345
110 10186 75134
111 14587 65346
112 11038 70477
113 10725 54988
114 10070 74292
115 10216 71637
116 9707 87827
117 7253 84569
118 7231 82806
119 10391 77519
120 9150 77400
121 9737 87627
122 10057 87566
123 14803 90248
124 10347 89825
125 21638 87596
126 9632 89243
127 9743 87533
128 29641 89712
129 20911 87477
130 24958 88148
131 27651 89149
132 20238 87367
133 24955 88143
134 29368 89056
135 29894 86550
136 29508 86179
137 27360 88263
138 29104 88425
139 34168 92295
140 41371 90484
141 46727 89395
142 44829 88446
143 47271 90165
144 20883 68762
145 10188 70435
146 11227 72046
147 11781 71934
148 27097 50330
149 35240 47356
150 17045 51406
151 21459 51447
152 24911 51128
153 18747 41719
154 20994 51504
155 59061 17453
156 62119 15755
EOF
