NAME : lhk
TYPE : TSP
DIMENSION : 160
EDGE_WEIGHT_TYPE : EUC_2D
NODE_COORD_SECTION
1 80000 20000
2 70587 13510
3 61566 17900
4 54080 25099
5 53710 31400
6 50976 33211
7 50831 33954
8 50930 33885
9 49495 33814
10 61519 69890
11 48182 72811
12 30964 55650
13 26271 57067
14 23764 60617
15 13935 59569
16 17707 48488
17 20886 39959
18 12955 34382
19 11494 21636
20 32651 65324
21 37498 69737
22 42442 66521
23 42402 60280
24 68282 61160
25 77939 80047
26 70296 65838
27 72995 67863
28 84703 82499
29 85994 82532
30 83334 87420
31 65911 47467
32 39003 25095
33 39097 25927
34 37026 29260
35 30678 38111
36 32520 24733
37 38551 17155
38 29907 21495
39 22823 17368
40 19235 14170
41 12008 18130
42 10685 16191
43 11887 18956
44 12251 16476
45 11100 24315
46 11968 41645
47 12091 39661
48 9400 43292
49 20399 60348
50 10909 49531
51 14032 58664
52 12455 51856
53 10210 48589
54 12051 70353
55 10833 69657
56 21447 72007
57 21793 63408
58 25492 77195
59 20876 68331
60 32963 74687
61 34730 75318
62 32028 90260
63 24581 89144
64 12588 89699
65 9953 89539
66 10137 77066
67 9369 79247
68 7329 87057
69 23887 79472
70 20299 83379
71 34730 75318
72 22035 76673
73 10133 83871
74 11747 78246
75 12480 76037
76 12080 74448
77 12056 70500
78 11572 70283
79 11616 70641
80 26847 89183
81 27580 90414
82 25026 87644
83 32632 89398
84 35033 91304
85 37266 87595
86 51245 88648
87 43534 85249
88 48170 85781
89 47925 88859
90 33069 89374
91 50221 88813
92 51647 88784
93 53593 79645
94 55202 88713
95 56300 78320
96 74652 88323
97 52940 88758
98 55052 89570
99 74707 76083
100 56609 76781
101 55794 88701
102 74652 88323
103 77061 88600
104 44998 79243
105 32097 86998
106 29887 89235
107 32137 90358
108 31391 88715
109 35335 75681
110 36847 76344
111 45402 77986
112 57921 69852
113 37154 76450
114 62336 72877
115 55037 76753
116 62950 69343
117 66425 68014
118 62400 69553
119 52984 66213
120 39857 56492
121 65612 68325
122 47118 72642
123 49422 63575
124 42864 58719
125 41893 59237
126 23940 60368
127 27888 54775
128 17464 53199
129 30678 38111
130 17134 52686
131 19795 50541
132 31292 47439
133 25904 45228
134 25812 19605
135 30678 38111
136 25186 16292
137 30005 35439
138 26157 16312
139 30678 38111
140 34583 42361
141 48436 48759
142 48167 54183
143 65315 54269
144 56035 56323
145 54806 45882
146 54662 45271
147 65379 51269
148 82319 49441
149 69156 50979
150 72960 39409
151 69606 43509
152 65930 47446
153 72955 44544
154 80882 51175
155 83784 58106
156 78410 32928
157 83902 24392
158 83065 16673
159 84340 15289
160 82659 14983
EOF
