NAME : lhk
TYPE : TSP
DIMENSION : 993
EDGE_WEIGHT_TYPE : EUC_2D
NODE_COORD_SECTION
1 80000 20000
2 8716 85868
3 35108 93640
4 9388 63164
5 3636 28197
6 51882 100318
7 53072 30534
8 38393 43493
9 22053 3055
10 49603 80577
11 6545 40640
12 26484 42468
13 52380 80186
14 16407 95490
15 13337 66480
16 7716 103401
17 24761 76382
18 17071 98212
19 53302 85041
20 47406 36499
21 25371 97603
22 30785 77449
23 42558 101633
24 51502 108800
25 62150 15389
26 89713 82317
27 49662 15225
28 48393 31442
29 17557 99905
30 77531 48637
31 37243 60321
32 10816 87086
33 19732 38272
34 90019 34949
35 19138 68422
36 61610 66491
37 32324 96079
38 35554 42266
39 28803 47702
40 12322 98539
41 51094 80586
42 30989 72337
43 72601 86799
44 56957 44242
45 23399 87041
46 61859 35359
47 10058 37835
48 6565 52743
49 20700 81070
50 39296 51146
51 23606 94459
52 68326 75723
53 66951 90951
54 37985 95066
55 37140 64187
56 57035 36552
57 36738 60892
58 3378 45339
59 14283 94339
60 20775 54221
61 35337 71752
62 -1594 9958
63 44497 85382
64 42260 44733
65 23362 11147
66 12464 43844
67 54519 50149
68 63177 70078
69 66423 72095
70 43099 41777
71 58539 54999
72 72514 74755
73 38912 88010
74 26014 86622
75 4389 19938
76 12905 82579
77 22990 87620
78 -2970 64049
79 21529 40634
80 27978 59902
81 41117 78682
82 23295 64834
83 52541 79423
84 66880 79476
85 56453 57199
86 62582 46006
87 -1044 22169
88 11044 34802
89 18945 80885
90 35228 61375
91 -6975 81302
92 53121 73809
93 34206 89181
94 17486 80481
95 48353 67744
96 6154 88905
97 35214 86912
98 14498 66781
99 96203 37440
100 15925 82503
101 -1390 48005
102 40083 63311
103 70657 54023
104 63364 1533
105 26346 61852
106 49288 97298
107 6631 105924
108 93035 55427
109 2987 98050
110 49305 71337
111 73065 65226
112 34601 26479
113 52092 64840
114 19372 66718
115 16449 69335
116 17062 93793
117 2346 49771
118 59435 44811
119 54529 94291
120 6803 79489
121 36567 94147
122 21601 30248
123 8059 51707
124 7908 44906
125 29808 77334
126 23549 38804
127 57271 89263
128 30377 60043
129 7493 44461
130 40160 89129
131 16578 67419
132 9466 65525
133 23851 62275
134 2657 29327
135 41004 66220
136 78009 99967
137 83571 48799
138 32085 56441
139 4585 94040
140 34276 95854
141 43972 84022
142 24737 86552
143 16890 59090
144 65726 46437
145 34370 81440
146 61784 79372
147 46213 98371
148 33678 48352
149 25680 35349
150 69794 98088
151 30493 92083
152 32690 30133
153 68906 65505
154 -2155 86015
155 20590 45507
156 34113 38261
157 44773 102571
158 6016 59305
159 70539 93322
160 75857 86926
161 39674 32814
162 52289 56958
163 12998 76115
164 41265 68598
165 50564 18456
166 37328 97042
167 6980 52674
168 29030 78190
169 16953 75812
170 11414 93341
171 92838 50563
172 32332 75980
173 38841 96011
174 59428 73804
175 18282 48661
176 46304 67738
177 62020 3996
178 57599 87188
179 5001 80972
180 44667 80537
181 38510 54746
182 28913 93653
183 14950 53506
184 19879 90704
185 17674 77271
186 56415 87085
187 52531 56224
188 8522 21268
189 53065 62531
190 28447 78083
191 68525 65862
192 46738 35017
193 13407 68189
194 51815 89276
195 41657 44062
196 87163 49488
197 14679 64809
198 49483 32117
199 87158 52594
200 13332 84099
201 -2563 101198
202 75776 67372
203 66324 88383
204 5505 82427
205 85544 75190
206 17175 25364
207 41860 93412
208 4293 71013
209 62802 65302
210 60593 29870
211 49810 50460
212 12600 12852
213 11776 48066
214 914 97425
215 5620 47264
216 42959 92239
217 45420 72471
218 62456 48706
219 10965 52494
220 8995 65247
221 11952 65539
222 16200 27156
223 3074 52539
224 31519 73110
225 7600 64885
226 51867 71865
227 36940 75932
228 17391 99358
229 11160 45951
230 59408 74192
231 37729 91313
232 32294 87790
233 80821 44150
234 25972 56849
235 14659 59033
236 55466 72989
237 4309 86988
238 31029 54866
239 58354 75267
240 48618 95839
241 5470 79870
242 43628 91701
243 86441 60219
244 87960 4848
245 18802 89923
246 51967 83452
247 25281 21615
248 17796 81347
249 45637 71636
250 21279 89691
251 43168 20745
252 71889 97295
253 34615 76050
254 30029 87917
255 19206 24462
256 6168 69146
257 29252 80268
258 32973 29709
259 1666 13904
260 53993 94713
261 87454 3639
262 44615 17374
263 46344 48515
264 10046 94016
265 47548 59989
266 44906 106726
267 33456 80353
268 29937 55647
269 12802 27717
270 37169 53603
271 35881 77451
272 26809 98278
273 9717 74713
274 56727 89187
275 78336 39262
276 27595 70764
277 46852 33731
278 6101 67603
279 28011 22126
280 11022 54236
281 58577 76184
282 49330 59101
283 56291 66798
284 4429 41959
285 28289 11147
286 67554 96536
287 54923 62568
288 38021 14263
289 21192 89065
290 42374 25359
291 68926 73616
292 41915 60042
293 36049 78651
294 53022 50962
295 40769 81993
296 62496 20234
297 29694 82726
298 61901 83731
299 5408 74245
300 6681 25774
301 -2827 85983
302 -2548 82888
303 34520 46322
304 4766 53696
305 2868 90140
306 52428 84303
307 23544 102658
308 23599 24405
309 32916 73910
310 39216 93785
311 38235 17337
312 92973 80098
313 8696 49236
314 59732 101680
315 62799 41496
316 60784 72490
317 8625 86428
318 61304 83113
319 75023 101601
320 41822 81866
321 50787 82537
322 3383 74322
323 88009 84954
324 63520 43921
325 28501 59354
326 5122 81346
327 21413 75051
328 26810 75393
329 -3259 35618
330 20009 71505
331 2354 36231
332 11915 25429
333 84911 72548
334 23948 81010
335 83141 65435
336 57046 82750
337 15388 51843
338 43067 19916
339 13748 67694
340 27074 79960
341 59601 69241
342 15669 43182
343 38457 45363
344 44596 100078
345 54765 94628
346 90641 15891
347 1479 81045
348 -2124 63254
349 12858 16024
350 33994 59471
351 39668 74104
352 27460 12457
353 11285 52336
354 74188 96056
355 25728 26533
356 54872 37168
357 46610 44935
358 59412 46958
359 65118 37873
360 31882 67128
361 13305 77039
362 10210 69830
363 13009 13526
364 42858 7212
365 11419 95804
366 40904 63815
367 20403 20731
368 61659 91118
369 23888 88102
370 58437 78213
371 43780 65592
372 5009 76334
373 91759 73545
374 6887 49588
375 8099 82104
376 38053 90517
377 3439 73203
378 49427 41102
379 61497 84739
380 40489 27046
381 8226 106593
382 2292 66696
383 31259 60901
384 79875 66199
385 7845 34451
386 88803 67033
387 11446 81486
388 79234 48551
389 30900 47914
390 43363 93762
391 27605 72665
392 19555 51032
393 25442 87178
394 61865 61062
395 42067 92134
396 63580 79663
397 68022 57082
398 21737 44589
399 22583 72270
400 15970 85018
401 16032 78789
402 5323 91898
403 14898 26198
404 18888 43397
405 30306 72673
406 -6463 92563
407 52206 77777
408 30351 15961
409 46874 88123
410 27957 88422
411 52373 70946
412 12941 65362
413 3944 27164
414 25159 53191
415 25031 35069
416 46140 89137
417 40689 88136
418 78725 77042
419 29676 83315
420 49664 25513
421 61050 53483
422 39799 27144
423 15563 55619
424 18259 44572
425 27200 89913
426 68493 43451
427 9113 82560
428 11441 65615
429 33425 78110
430 17141 63972
431 22743 91731
432 19260 68696
433 54519 70055
434 7890 79217
435 52846 101471
436 9197 99942
437 16004 87349
438 50756 87002
439 34997 50732
440 21170 25579
441 65567 63229
442 22179 91508
443 12574 92222
444 16670 71921
445 7721 85375
446 -5228 76174
447 8677 91315
448 5216 92088
449 38123 95557
450 43222 96904
451 87879 76694
452 19780 61616
453 53643 47662
454 47589 61160
455 31753 76944
456 3890 31215
457 24041 98353
458 18961 80864
459 47604 40541
460 48019 58186
461 57566 74062
462 32943 50296
463 16845 94798
464 6935 49394
465 64737 95968
466 68171 81971
467 70473 52652
468 45006 27428
469 53827 65161
470 21556 85182
471 29494 102993
472 31798 54810
473 50319 45612
474 94490 87336
475 12805 21664
476 15036 37857
477 15567 55213
478 62971 91016
479 58415 52977
480 10345 81270
481 39923 40458
482 74721 83934
483 21613 58061
484 91565 14362
485 44031 79380
486 64304 60135
487 23918 39140
488 12746 67958
489 16931 7294
490 5177 49888
491 23530 96317
492 23624 93975
493 60835 54477
494 37637 59852
495 76482 93332
496 18609 89927
497 23441 43717
498 85951 62303
499 49111 58390
500 -1757 32384
501 15226 72559
502 20992 67935
503 14376 69560
504 9781 75948
505 67660 21155
506 15852 54115
507 81996 66005
508 31030 56545
509 31482 46107
510 63383 64379
511 26523 47564
512 52562 109226
513 51768 51376
514 45939 80113
515 -493 35779
516 60572 61149
517 47111 92160
518 -5919 73114
519 38392 3358
520 43340 48087
521 80610 28663
522 23740 99166
523 40185 47983
524 41444 68822
525 16588 64754
526 27021 47172
527 25468 74733
528 12710 60172
529 81395 73133
530 26273 34447
531 46844 78693
532 3280 60291
533 43569 104840
534 43421 58586
535 6069 48007
536 21419 39408
537 49064 81078
538 25179 75731
539 53426 58203
540 41786 88662
541 33034 80664
542 46082 92583
543 2185 50558
544 35311 49807
545 74078 99934
546 17885 62471
547 -790 85783
548 6984 82536
549 37646 91904
550 22868 27501
551 23275 86743
552 18356 87066
553 16021 67316
554 73480 57744
555 -1804 70359
556 59804 26558
557 5176 78958
558 23952 86846
559 38836 59983
560 43014 97847
561 12823 80788
562 50903 84652
563 52142 72858
564 43687 75002
565 45126 83976
566 20483 54888
567 39876 43661
568 64897 88704
569 3661 101598
570 37452 98496
571 -6013 80306
572 20374 70964
573 17769 29895
574 38066 16907
575 26733 68827
576 54663 81974
577 34889 68135
578 54107 60844
579 24541 72718
580 75512 71921
581 68567 102760
582 65103 8504
583 52567 72180
584 73146 54825
585 56424 106319
586 996 87849
587 41251 35378
588 23542 61355
589 1464 17261
590 15384 60428
591 97338 35204
592 31363 64828
593 78762 46118
594 18195 98971
595 57430 41561
596 60539 63610
597 42598 74727
598 40831 64838
599 70536 16065
600 21576 59743
601 22131 72416
602 32866 62478
603 25891 16371
604 27043 56827
605 25390 77196
606 57471 65703
607 69948 53453
608 10302 67077
609 18865 82120
610 74656 43777
611 25430 95745
612 27777 98204
613 19867 39956
614 35408 96846
615 39771 75101
616 -959 78054
617 5717 32385
618 56455 66573
619 52190 87965
620 25331 50896
621 66801 97452
622 35910 53255
623 65531 76970
624 47898 50693
625 54978 94997
626 49934 68613
627 32923 15190
628 94368 11977
629 10338 87183
630 18437 10087
631 22234 57980
632 22030 89936
633 57069 65874
634 26327 48566
635 59305 38656
636 22702 73823
637 52424 83650
638 13534 88332
639 40286 94013
640 8166 82692
641 32414 67367
642 8467 28780
643 44763 83646
644 23294 18954
645 56314 48085
646 38411 53177
647 2163 10455
648 53069 58969
649 77655 82891
650 41621 90789
651 56969 59678
652 19250 95658
653 9437 38563
654 44623 18091
655 58144 78488
656 24435 39031
657 72139 55447
658 18191 71329
659 33313 74694
660 44090 83695
661 100675 76468
662 17201 23467
663 35002 80124
664 18809 44221
665 28039 50807
666 7893 76074
667 75673 91298
668 3242 72029
669 64983 71020
670 30633 17322
671 61389 40683
672 57359 75367
673 30137 85516
674 16681 33567
675 12919 23037
676 61392 46295
677 45124 59565
678 16523 66277
679 342 92417
680 28093 34062
681 8482 58772
682 52790 34940
683 6834 11021
684 36430 63755
685 87678 60293
686 88292 83177
687 4373 76327
688 27777 36524
689 25701 52656
690 34539 79111
691 57868 78171
692 13573 50282
693 41341 28317
694 7295 89571
695 10557 65153
696 17973 79848
697 22182 91717
698 15771 75921
699 17509 49209
700 12779 88637
701 18342 41442
702 25250 66858
703 26680 24978
704 4341 68053
705 32277 18463
706 22851 57674
707 40250 41407
708 36830 91208
709 542 62072
710 22258 26600
711 11648 22279
712 6184 89438
713 11616 101600
714 52166 90350
715 20745 101521
716 35969 65147
717 50161 40734
718 8485 68039
719 2320 96608
720 3768 86197
721 26880 64495
722 73915 15556
723 8466 -34
724 23372 36226
725 34696 75642
726 80490 84490
727 22879 75747
728 68035 68362
729 3077 75910
730 26857 50954
731 27473 81851
732 11297 42892
733 41701 60403
734 26964 53953
735 -748 75486
736 17712 62231
737 2695 90179
738 61098 102001
739 38798 108327
740 15521 61483
741 80169 81141
742 13784 28688
743 76660 85009
744 48453 60948
745 68995 75373
746 73026 39049
747 40945 102783
748 135 62160
749 30288 43603
750 -982 46352
751 12817 103062
752 54355 38731
753 43617 94802
754 12638 96535
755 52482 88800
756 40199 79550
757 26683 57949
758 21418 89938
759 14709 52029
760 3331 83860
761 8202 59815
762 17826 96692
763 58285 66857
764 34705 98718
765 7081 60467
766 49921 59576
767 37243 99101
768 66639 56465
769 31453 93891
770 54678 75296
771 5893 39485
772 18134 45344
773 18063 59115
774 30308 82725
775 62877 93071
776 66153 78786
777 14864 101292
778 58489 17841
779 37148 46756
780 45988 78125
781 10588 81841
782 58308 29681
783 49397 79693
784 38765 47736
785 -3139 60843
786 53740 20691
787 31265 83963
788 27734 27150
789 24018 54890
790 26380 76179
791 36313 34896
792 44436 71266
793 9767 85510
794 52156 65413
795 -5563 31623
796 31651 95370
797 16186 77366
798 23315 40085
799 57489 62876
800 9075 62494
801 48544 77400
802 53284 76462
803 43719 68097
804 635 79353
805 47913 63154
806 11424 52371
807 28315 81431
808 32998 82986
809 21382 100188
810 34746 61568
811 54942 54200
812 24228 44881
813 6713 13265
814 70337 83759
815 52934 85062
816 8480 83804
817 57097 90594
818 69748 85221
819 73933 69707
820 61961 24160
821 85135 99346
822 61333 43725
823 29211 22933
824 72016 91432
825 20348 20611
826 14612 70480
827 41565 84938
828 3049 99986
829 62094 35480
830 32433 36129
831 2194 73922
832 59054 26609
833 57292 85285
834 17301 80539
835 35311 31558
836 83835 41269
837 13040 25892
838 76095 71725
839 82961 48212
840 42010 56533
841 36345 80243
842 18590 41380
843 59153 50823
844 48266 51906
845 51019 39630
846 65372 90837
847 20140 63724
848 55103 74121
849 50488 38022
850 -361 55607
851 72603 55151
852 63791 85476
853 79554 71969
854 38503 42182
855 67563 93247
856 57793 66195
857 49287 103170
858 53056 72599
859 10961 48826
860 24365 101009
861 9380 75239
862 49894 85884
863 40831 44416
864 12553 33664
865 69391 77321
866 46989 28900
867 39794 102191
868 63946 73629
869 9674 96520
870 20398 29044
871 52256 41238
872 26797 99440
873 31745 82476
874 50358 27490
875 40379 96062
876 55500 49688
877 42320 48325
878 38195 96260
879 33627 72310
880 14636 69155
881 49345 84145
882 10226 7321
883 48563 108871
884 36161 20232
885 89488 53415
886 30767 96511
887 10190 74019
888 55808 84499
889 24000 70729
890 93569 90878
891 5014 78245
892 33675 53996
893 12681 89680
894 68756 95053
895 49568 61612
896 48844 79126
897 46286 88507
898 24256 61853
899 -1976 32641
900 17582 26772
901 82097 62036
902 25816 59272
903 22795 20496
904 21349 69033
905 71769 77195
906 5439 83958
907 47043 44549
908 63100 66177
909 25145 47056
910 11946 43451
911 32507 73487
912 57453 98237
913 41763 64663
914 28967 46855
915 8666 92844
916 15699 26183
917 20949 95646
918 36618 44385
919 27989 90739
920 35524 81240
921 72808 43153
922 44985 82885
923 28135 58275
924 49432 47445
925 22377 69154
926 10072 61379
927 74583 42553
928 23365 65239
929 87579 98302
930 24352 57857
931 48931 42030
932 69488 82101
933 81959 49302
934 17145 96856
935 35904 23794
936 49201 43214
937 9595 48704
938 69842 81340
939 15193 60788
940 9566 72424
941 46120 81184
942 61965 55379
943 76072 58223
944 16531 21881
945 5608 76616
946 56625 56027
947 21904 74715
948 50789 75201
949 9147 70010
950 10770 53042
951 24404 63707
952 82592 61290
953 44856 98476
954 6189 89801
955 17803 77122
956 21337 83498
957 21870 56716
958 35253 61296
959 6098 38934
960 60849 15142
961 29781 98669
962 49836 91963
963 69946 71183
964 4899 23763
965 59967 68265
966 25234 63981
967 -180 61653
968 77225 53321
969 43335 72398
970 -2588 93987
971 18445 71994
972 17075 65781
973 6647 62733
974 23059 90114
975 44309 91809
976 74168 69315
977 41568 75483
978 84312 57648
979 51701 45652
980 81766 17796
981 57224 88797
982 20651 66525
983 9570 80806
984 77187 91946
985 71895 91745
986 8468 22523
987 49884 72428
988 62885 72335
989 -2558 98301
990 43978 53830
991 8792 39661
992 9564 80090
993 57412 95077
EOF
