NAME : lhk
TYPE : TSP
DIMENSION : 993
EDGE_WEIGHT_TYPE : EUC_2D
NODE_COORD_SECTION
1 80000 20000
2 8910 93016
3 32756 84571
4 3866 72000
5 6335 28217
6 45305 101187
7 58142 20787
8 32521 35172
9 20972 8167
10 56061 83705
11 6434 36102
12 26287 45264
13 54339 82557
14 18005 93208
15 4049 68618
16 18111 98290
17 26176 80713
18 17266 91323
19 62665 82034
20 46094 34626
21 33669 96292
22 43792 63963
23 33916 88419
24 53821 100027
25 61486 25886
26 89402 88036
27 33051 26365
28 57863 32278
29 31543 98216
30 74294 43084
31 37203 65340
32 8516 87533
33 19772 38742
34 83764 32911
35 31486 59100
36 49946 52269
37 35588 95474
38 23733 46023
39 33272 39219
40 941 97130
41 53767 87344
42 18191 82102
43 62034 104008
44 65292 47416
45 23569 92474
46 59111 42258
47 3205 38803
48 6984 54013
49 12850 82476
50 41217 40692
51 22303 99624
52 58738 73326
53 65484 95573
54 34091 90817
55 34241 68082
56 58575 26012
57 32959 74343
58 1003 54343
59 20982 86851
60 19539 50971
61 30127 69531
62 -4560 17789
63 51924 91998
64 54787 43878
65 19243 21875
66 20041 36935
67 45845 45583
68 69014 63456
69 61803 66355
70 49462 40830
71 62680 50270
72 66076 79181
73 33346 92461
74 28619 89896
75 2662 25544
76 2844 72805
77 33169 81672
78 -360 69561
79 16931 41626
80 26979 55797
81 28939 66334
82 20787 73859
83 53432 85903
84 73800 71677
85 60874 55220
86 55409 65292
87 9827 38270
88 10716 35471
89 13782 76757
90 36707 64566
91 844 92280
92 46491 74612
93 32862 89813
94 13733 90356
95 52007 74489
96 14450 79539
97 30198 91339
98 11807 69026
99 87802 27489
100 23435 73070
101 18488 55781
102 46645 67099
103 68032 61223
104 63601 2930
105 35329 62228
106 46255 95960
107 7984 95480
108 96697 55686
109 7537 88140
110 55791 61932
111 70563 63567
112 36860 20846
113 57697 60771
114 12411 64205
115 17290 65613
116 13235 96050
117 8489 49036
118 63562 48320
119 54463 92908
120 8952 74592
121 31758 103687
122 23877 31262
123 -6304 53857
124 10570 50120
125 31355 80182
126 25050 36927
127 46487 76531
128 28837 53107
129 12084 49031
130 44360 89805
131 16690 66131
132 17835 62171
133 31720 64608
134 8449 33290
135 45992 73211
136 77618 93218
137 85632 51827
138 30658 64264
139 12868 105112
140 33644 102891
141 41575 86514
142 39909 86545
143 11333 49574
144 62725 50903
145 48737 69028
146 74238 91604
147 35107 93497
148 22037 48228
149 21715 51285
150 65053 108344
151 38635 87544
152 29285 39100
153 77622 63252
154 3125 92939
155 15156 48775
156 35994 38775
157 48783 88131
158 12428 46177
159 62253 93858
160 74206 93295
161 39034 26651
162 43555 61127
163 17568 62224
164 42224 74584
165 59638 23008
166 47566 102562
167 9212 57445
168 28071 76913
169 29298 82442
170 1394 83748
171 101567 56193
172 44810 76670
173 35241 89176
174 61517 73006
175 9613 55564
176 38137 64868
177 63693 11429
178 62740 93145
179 10831 89988
180 61963 85388
181 39426 48694
182 46621 100852
183 13914 48698
184 27805 92917
185 13038 87829
186 64562 91878
187 54206 50555
188 889 18251
189 59431 59125
190 44196 78435
191 66358 55908
192 41697 40411
193 22668 59048
194 51343 81027
195 32856 46777
196 77281 40968
197 13691 57678
198 49384 47600
199 82748 48094
200 4901 88945
201 19238 93838
202 74785 62683
203 57128 91805
204 4674 84278
205 87841 68608
206 24262 35290
207 35932 91745
208 -2336 73182
209 57135 69231
210 53109 18798
211 45157 52244
212 7830 8341
213 6621 43359
214 8675 103928
215 1813 48560
216 39288 81401
217 48929 57229
218 53128 51597
219 -3266 61967
220 13492 69207
221 12434 75361
222 26414 28617
223 17762 43905
224 26715 86699
225 12052 73871
226 43991 72435
227 28177 73568
228 9546 98658
229 13600 51001
230 57457 84456
231 27909 91779
232 33944 90279
233 78000 44214
234 22749 56482
235 5647 60994
236 41176 73813
237 5192 90355
238 30744 49417
239 60000 63931
240 44636 94627
241 10258 77366
242 38601 92306
243 83964 55673
244 93898 10031
245 16878 81819
246 52783 85321
247 32094 22981
248 8367 87406
249 46930 76652
250 16441 88015
251 45886 27135
252 73169 87289
253 41089 76171
254 27079 86271
255 23263 17106
256 5422 59780
257 38770 93086
258 39560 46371
259 4449 24355
260 54127 84546
261 83553 5571
262 30686 30336
263 55681 48289
264 3384 91570
265 39812 64359
266 45881 97674
267 31945 81009
268 23189 55384
269 14320 28513
270 39834 50985
271 24670 78109
272 27098 92401
273 16263 65280
274 65359 92035
275 84331 45000
276 29264 61962
277 46342 45489
278 2181 65376
279 22277 28408
280 11790 51568
281 46224 84252
282 46956 52966
283 50070 63533
284 20543 42881
285 28055 18834
286 64752 93864
287 52194 59958
288 29914 4247
289 20602 87538
290 47546 25528
291 68301 71034
292 45440 70732
293 37800 88546
294 60342 58457
295 48081 87550
296 61462 19510
297 27271 87623
298 59311 76703
299 -1108 78455
300 10559 26440
301 10238 81221
302 9943 90546
303 36128 57780
304 18188 54933
305 17833 90814
306 37187 97771
307 22989 87177
308 34453 24320
309 35937 66178
310 37657 93607
311 33999 25631
312 87062 73467
313 6456 42236
314 47065 94288
315 61437 34381
316 58207 77712
317 9932 86465
318 62855 92635
319 70688 106065
320 39167 79359
321 54772 85133
322 6461 84127
323 84178 89259
324 71292 29865
325 25852 55557
326 5328 81370
327 14080 86995
328 22175 63241
329 197 43606
330 27002 59451
331 9950 46407
332 6283 22877
333 78083 63360
334 19049 72598
335 70928 69523
336 56017 80524
337 10067 50047
338 40913 21636
339 18027 75930
340 18784 77636
341 65439 67435
342 11133 37563
343 38889 47501
344 44229 92705
345 52013 100914
346 85302 27444
347 14451 82393
348 12988 63291
349 10416 16853
350 21518 66261
351 48760 75857
352 36605 7050
353 9715 62317
354 75635 102815
355 26135 27179
356 52999 24893
357 46574 52260
358 74974 43370
359 56675 32264
360 27063 67927
361 23026 84902
362 17341 73122
363 430 17435
364 40888 8039
365 7566 86583
366 40988 71664
367 12445 11570
368 50814 92633
369 23887 89533
370 57092 85328
371 37847 54349
372 2392 66493
373 98047 89650
374 8166 51365
375 10212 84458
376 44138 90085
377 5955 68172
378 61417 40659
379 67469 73281
380 30203 22076
381 6836 98604
382 -2687 61637
383 34812 57071
384 80592 70778
385 13682 35763
386 67180 68743
387 15427 84836
388 84107 60164
389 28326 42215
390 54221 97337
391 18119 66338
392 18666 49086
393 34849 101562
394 71042 67496
395 27049 83732
396 52327 87331
397 60296 47984
398 22360 42715
399 17806 58567
400 15002 84236
401 11659 74204
402 -6705 89953
403 18714 21191
404 22086 45925
405 30841 75326
406 9432 104835
407 51494 83240
408 32566 12171
409 52089 88478
410 31157 102251
411 39013 69845
412 16954 66388
413 10840 12027
414 36608 51875
415 29773 42516
416 58011 82193
417 32468 87884
418 78340 81169
419 24156 91569
420 51266 21481
421 72801 58868
422 51731 38501
423 27055 63340
424 20338 31069
425 28852 86785
426 67803 57367
427 3250 77748
428 4918 70109
429 23140 82813
430 5507 70417
431 24038 101658
432 21762 79241
433 56533 72508
434 -4647 73453
435 56160 106246
436 8405 90848
437 6781 78990
438 31450 83485
439 25637 43972
440 20142 27057
441 58674 66454
442 27989 101697
443 17148 84346
444 20915 77522
445 5124 85711
446 -2017 79373
447 15956 95774
448 6750 91035
449 37599 95873
450 30716 93918
451 92048 76114
452 20423 59162
453 42252 42857
454 60257 69214
455 24124 72228
456 2790 32284
457 26964 107980
458 9312 75463
459 48207 39943
460 30903 64511
461 65731 78808
462 45591 54383
463 15689 87354
464 12511 36639
465 71393 86211
466 68524 93575
467 67296 31840
468 40474 39493
469 52269 62156
470 21249 82453
471 35023 85888
472 43419 51061
473 46128 49153
474 89362 91163
475 11465 22979
476 23793 45241
477 12596 48675
478 74085 85153
479 62830 58876
480 12101 79413
481 40709 35271
482 68748 79465
483 22712 61774
484 100469 3748
485 40939 71930
486 55394 49861
487 23932 36606
488 20840 79362
489 18621 6761
490 -1121 47752
491 16791 86854
492 21310 99128
493 45082 47164
494 31106 55550
495 80509 102752
496 11975 96069
497 12735 43979
498 102723 61430
499 48738 55958
500 2114 47056
501 16149 76826
502 30029 69600
503 9382 74875
504 9121 64417
505 66199 16451
506 10324 56684
507 96332 61313
508 29688 59396
509 34995 46611
510 64517 78975
511 28217 54842
512 52972 99228
513 44456 47844
514 38081 78087
515 1951 31176
516 60453 68404
517 39867 92661
518 9485 70408
519 38378 854
520 60053 53338
521 93613 36050
522 22614 99607
523 41088 59612
524 47663 70775
525 17162 63855
526 37804 44922
527 23708 72302
528 7815 48208
529 85534 69461
530 31618 38204
531 48823 81776
532 4044 57358
533 42974 103788
534 39128 59277
535 12795 38046
536 26642 45590
537 42960 98702
538 21909 70678
539 54177 63113
540 39739 88868
541 41265 65208
542 59230 99032
543 14398 61492
544 27801 42036
545 68269 94318
546 16896 56473
547 5981 79829
548 -6909 81603
549 39768 100712
550 19858 38449
551 21558 77544
552 17047 69546
553 24103 72235
554 70313 51293
555 6049 83176
556 52996 24464
557 6214 76300
558 3496 86883
559 38085 66505
560 51549 93488
561 14510 89608
562 31657 76418
563 46803 75634
564 50220 81247
565 37792 78350
566 3109 52259
567 30983 36998
568 59362 91860
569 3512 96161
570 31640 89401
571 -3752 81483
572 25068 64905
573 17313 18978
574 38562 14899
575 35941 64202
576 56886 94659
577 43407 64703
578 57520 58377
579 25743 83263
580 77920 70833
581 79024 104583
582 71810 18312
583 54890 77338
584 62154 53392
585 53086 89772
586 8436 98162
587 37392 32415
588 22466 67634
589 13736 11299
590 712 57801
591 86689 30798
592 32084 70546
593 77262 46216
594 11873 91176
595 59517 41749
596 64460 68545
597 36023 67123
598 46934 55800
599 68154 25287
600 29265 65842
601 17462 61916
602 23075 62036
603 19818 17122
604 27539 59680
605 30383 82325
606 54536 68129
607 68552 41396
608 -7742 75212
609 23294 68970
610 72794 43162
611 20409 92993
612 19993 101914
613 26065 30266
614 26221 100888
615 34761 84744
616 -1268 81318
617 16867 39750
618 57047 64189
619 53083 91130
620 24658 54359
621 57565 100440
622 49402 58409
623 62468 94726
624 63971 48965
625 52314 98767
626 56602 59389
627 33901 12580
628 90555 23020
629 3427 91505
630 268 13233
631 22856 69299
632 29858 104749
633 43264 68907
634 30571 56938
635 60789 29489
636 28741 82142
637 53175 87024
638 8818 89116
639 30738 84520
640 1770 64051
641 32595 59944
642 23848 24010
643 53676 88854
644 33293 15291
645 65336 48420
646 35625 61477
647 4497 13117
648 61646 61862
649 80811 85357
650 30025 85009
651 69247 63431
652 27241 85105
653 16733 46799
654 40617 28122
655 64448 74758
656 24628 42654
657 67048 67657
658 9935 74957
659 23674 68306
660 54401 78017
661 89193 66390
662 14032 19262
663 24793 79623
664 10595 49379
665 32233 38831
666 7283 75026
667 71277 91416
668 1787 71643
669 60416 79079
670 38822 14579
671 68921 49432
672 61280 78684
673 28530 100431
674 10351 23919
675 7332 15567
676 61212 38182
677 41770 65914
678 17496 51245
679 3143 94490
680 36480 38760
681 23625 69062
682 46597 39856
683 10730 26723
684 40973 62531
685 74781 64050
686 85108 90737
687 4502 73431
688 27170 39249
689 26822 54146
690 24773 77478
691 57227 92647
692 13215 51226
693 45664 46573
694 13947 89101
695 5880 76613
696 17940 87670
697 24684 87782
698 33116 73570
699 21285 51348
700 16338 77982
701 16730 29634
702 14284 68361
703 27725 16098
704 10253 71188
705 38349 14960
706 27218 53015
707 23947 41765
708 44463 96064
709 9434 58167
710 22721 24927
711 8806 23318
712 8474 95923
713 18877 97259
714 41184 91376
715 29348 90977
716 42590 61716
717 58088 43630
718 1031 73691
719 5258 82755
720 -3737 81883
721 26440 63107
722 77756 8771
723 3726 5599
724 25919 38880
725 49762 75742
726 85156 88313
727 21388 75389
728 67243 70638
729 7271 71054
730 24995 71231
731 31983 71610
732 1095 40843
733 43357 70657
734 26655 61110
735 -4823 69703
736 31789 52262
737 7757 96918
738 60309 102601
739 35262 96015
740 11440 71617
741 92112 77768
742 10573 18918
743 85460 88359
744 60271 62158
745 64359 68827
746 78693 48597
747 51897 105760
748 4092 58925
749 35048 37091
750 9565 40907
751 11718 110615
752 50974 28092
753 36320 99218
754 21941 89614
755 54796 91552
756 42671 78736
757 17570 54479
758 25413 82635
759 17676 50843
760 2526 82525
761 9536 64140
762 24806 92807
763 59339 58173
764 38141 95520
765 18748 67538
766 41580 62164
767 45073 101552
768 70238 55660
769 26496 98769
770 47156 77252
771 10897 34221
772 14166 54273
773 12418 55620
774 32051 76764
775 54805 99471
776 69377 72353
777 18416 98138
778 65816 10500
779 40006 45609
780 44208 67667
781 16722 79828
782 56948 36832
783 54146 73418
784 34074 43601
785 5246 67464
786 49540 28294
787 26154 93579
788 35555 22209
789 28905 60600
790 15684 73574
791 42354 35243
792 54587 52946
793 3424 81901
794 46079 59011
795 10032 21865
796 32077 85420
797 17715 69164
798 25036 47533
799 49678 60898
800 -8076 69255
801 60389 84531
802 66356 84391
803 43321 81014
804 5884 83850
805 42504 62260
806 15808 45893
807 29305 81595
808 41197 84522
809 41494 98727
810 39926 58954
811 51995 54090
812 20016 43720
813 -1027 -2221
814 83582 92754
815 46539 88202
816 9871 87057
817 50655 88085
818 64839 95526
819 74774 75488
820 67914 15096
821 78054 94044
822 52174 36679
823 40263 23216
824 66562 89306
825 33126 22869
826 19633 88650
827 49735 82226
828 -2650 93910
829 57463 36752
830 21821 32258
831 -1207 81388
832 57196 27762
833 58943 80542
834 30278 94700
835 43139 21460
836 89654 47050
837 15118 27992
838 71720 76185
839 86855 50957
840 39947 64567
841 38626 81398
842 10911 47867
843 66976 45930
844 46057 43252
845 54621 31383
846 64577 93307
847 25600 65771
848 59753 78634
849 38969 41311
850 168 42797
851 73814 54765
852 53072 89616
853 74709 64734
854 31870 33439
855 72488 95821
856 49347 59457
857 59702 98590
858 58940 73946
859 28595 48229
860 32815 91684
861 8533 77196
862 59559 84621
863 42293 45293
864 4864 38413
865 85069 85888
866 39143 36055
867 42590 94544
868 67320 66167
869 8193 87392
870 23521 32061
871 60531 41791
872 23574 97972
873 33039 77817
874 58836 31332
875 47969 100277
876 45879 49485
877 33244 46904
878 44379 100224
879 33370 72234
880 12659 71803
881 43798 83659
882 15166 2854
883 50628 99788
884 38306 23969
885 93172 60697
886 30578 83913
887 20235 79409
888 57975 85097
889 18769 63635
890 83317 93941
891 4391 76535
892 29080 54640
893 8085 84463
894 80720 98615
895 43824 72608
896 41014 78694
897 51868 90001
898 20475 52559
899 2868 26890
900 20559 24435
901 76281 61488
902 33382 65629
903 26476 21749
904 19906 71157
905 60904 66468
906 8445 82108
907 50823 44730
908 61825 60681
909 24876 50163
910 680 45029
911 35844 75692
912 53964 87469
913 41171 53246
914 28871 49112
915 4298 101600
916 27473 29038
917 25235 83163
918 43834 40974
919 32731 85328
920 32564 82962
921 74591 58072
922 40194 70630
923 38931 55928
924 49569 53552
925 22131 66989
926 9616 67650
927 67057 50021
928 18381 59759
929 85436 99447
930 36568 56999
931 53168 38455
932 63020 80836
933 82005 49239
934 23384 93778
935 41293 21475
936 43368 40363
937 9452 45837
938 63918 71425
939 13214 52414
940 58 61789
941 59198 86182
942 69543 68553
943 64012 64131
944 20093 26741
945 4658 82975
946 44031 46361
947 21227 77294
948 55440 79641
949 7800 78333
950 13409 49161
951 16350 77830
952 94687 58901
953 50618 86990
954 6719 87460
955 30038 82034
956 4801 86360
957 22856 56484
958 31674 61311
959 914 44437
960 61373 24798
961 32861 99946
962 48754 98564
963 79917 66686
964 9914 15658
965 53252 61859
966 25553 62809
967 3022 74854
968 78022 52273
969 49572 58779
970 12110 93383
971 15032 66985
972 20288 61892
973 17089 52138
974 12070 101408
975 36728 102328
976 66059 62028
977 42497 79051
978 80796 71072
979 57667 44230
980 80021 18879
981 49647 92845
982 24109 56338
983 9933 88051
984 81977 100517
985 55180 91631
986 13173 31678
987 51794 70351
988 58303 76724
989 2694 96521
990 38917 43110
991 14981 44276
992 9491 87039
993 64343 96890
EOF
