NAME : lhk
TYPE : TSP
DIMENSION : 993
EDGE_WEIGHT_TYPE : EUC_2D
NODE_COORD_SECTION
1 80000 20000
2 4792 101064
3 35830 85592
4 9442 65351
5 -2795 24981
6 49560 96257
7 56973 29248
8 33304 33452
9 22081 8163
10 52471 75422
11 6639 33539
12 18625 47212
13 48625 81033
14 7855 95098
15 -4544 71988
16 17067 99497
17 22773 82289
18 28448 94324
19 64954 80205
20 57168 43237
21 34710 105741
22 33227 61152
23 29989 91524
24 58225 92629
25 70227 32166
26 91415 82720
27 39480 20539
28 45877 34997
29 22293 95743
30 69385 49553
31 41855 64715
32 2443 77898
33 18812 41963
34 86505 28779
35 21562 59240
36 47943 57784
37 16909 90763
38 14462 49448
39 33964 40823
40 9686 104599
41 52421 87807
42 26458 88657
43 64737 95895
44 60943 45235
45 27424 91577
46 66407 38714
47 8444 40998
48 5541 48923
49 13404 77779
50 40505 46967
51 19780 87818
52 66268 77433
53 67962 94090
54 43331 101762
55 31249 59501
56 62087 33506
57 30490 68701
58 9392 43424
59 12016 91908
60 16474 50887
61 39381 78568
62 4183 27198
63 58481 94754
64 50586 43617
65 37818 24834
66 11159 29781
67 52531 32130
68 65474 66472
69 74650 64792
70 48859 46034
71 59280 56674
72 67713 74034
73 36417 94092
74 19044 91815
75 765 20196
76 4970 75124
77 28748 82462
78 9771 59237
79 19613 46709
80 25169 60947
81 35800 76164
82 23393 66949
83 46595 90142
84 80579 74439
85 56622 62163
86 56814 60952
87 9406 36739
88 12794 24482
89 14193 85535
90 28249 50381
91 -6824 79898
92 55759 73296
93 27734 82680
94 21940 95543
95 47947 80680
96 12073 85147
97 33380 88010
98 7766 71942
99 100098 38524
100 17610 64276
101 8030 52077
102 49761 52063
103 74975 61701
104 67208 8258
105 43648 56863
106 47531 93537
107 2247 93345
108 89603 64944
109 4439 88028
110 44343 68813
111 80274 71799
112 28754 21135
113 55126 72134
114 19685 83273
115 7176 70334
116 15465 91395
117 24 50512
118 56347 48919
119 56018 88606
120 11093 66663
121 30617 92131
122 22416 20526
123 7685 55596
124 8176 40542
125 30751 77807
126 14017 38981
127 50862 80375
128 37517 47706
129 -3307 50435
130 43200 84417
131 21646 73209
132 6372 63931
133 19569 64394
134 9934 21646
135 38359 62207
136 77096 101793
137 80668 49116
138 41940 65359
139 3900 89395
140 31426 103321
141 53863 82004
142 43286 85984
143 9353 51181
144 62428 47625
145 33274 71435
146 67362 87870
147 40379 90024
148 38436 55288
149 18223 39315
150 76587 95806
151 33032 91072
152 41421 44069
153 80205 63801
154 3196 89566
155 14361 39495
156 42809 39728
157 52297 84972
158 3602 56208
159 69983 88880
160 77504 85747
161 34508 21460
162 55009 58178
163 13150 77400
164 39856 68013
165 49151 26411
166 45099 95412
167 8160 50137
168 30423 86339
169 19530 78545
170 4334 85095
171 90710 55095
172 38740 73566
173 33832 87225
174 63793 70698
175 14702 43187
176 37972 68722
177 72187 6828
178 70059 96365
179 1450 80398
180 52357 78542
181 41165 56764
182 42281 98710
183 15173 50427
184 20499 94921
185 13301 78885
186 63704 92825
187 51990 52988
188 -2933 22489
189 56371 56289
190 35962 81612
191 66094 55397
192 31377 27678
193 17538 56868
194 40484 90787
195 38281 48076
196 74081 45164
197 10308 67423
198 45593 43127
199 90348 48905
200 -1943 99007
201 14763 91846
202 75575 57840
203 58651 90620
204 8881 73522
205 84306 70819
206 15425 26371
207 42529 92529
208 -2882 76273
209 50443 68034
210 42061 28461
211 36229 52210
212 16603 19881
213 7365 46188
214 4045 95518
215 -1806 51661
216 38632 70150
217 49479 63719
218 56883 47772
219 5003 57284
220 178 71885
221 15146 69091
222 25931 27102
223 906 52555
224 27376 74147
225 2162 78308
226 50294 67520
227 37250 83893
228 25463 91846
229 13451 48404
230 55981 79862
231 36184 90627
232 35664 82585
233 69206 43392
234 23718 57744
235 6154 57017
236 49197 67373
237 15466 101135
238 35234 59958
239 71764 65325
240 50663 91173
241 6256 82030
242 45060 89188
243 85869 63986
244 97384 4714
245 17745 72868
246 54452 85631
247 26823 16759
248 20511 94331
249 52684 79409
250 20427 86463
251 50598 38333
252 71501 98548
253 34718 80889
254 33400 77429
255 27907 25196
256 369 63955
257 36226 93242
258 46843 29002
259 2351 20700
260 53648 80546
261 86645 -224
262 32306 29450
263 55160 48473
264 2085 89425
265 50774 53439
266 37954 98837
267 30025 67879
268 32207 57275
269 13622 28017
270 24494 49562
271 43289 76608
272 29269 92818
273 9193 66424
274 56760 83834
275 83072 41531
276 30719 61774
277 43548 45334
278 6271 68773
279 41224 31180
280 16252 52995
281 60158 86137
282 36993 55786
283 53466 62774
284 3395 33496
285 30503 23651
286 77347 83938
287 50272 62323
288 47360 7025
289 12797 92999
290 45714 27259
291 68803 69635
292 42380 69119
293 26501 81510
294 50982 57801
295 40977 73943
296 71829 16296
297 37153 83035
298 61426 89009
299 -65 70904
300 10756 15840
301 2856 90413
302 6545 88800
303 33374 51110
304 4787 52718
305 10734 92056
306 45916 89702
307 20958 98726
308 27317 22566
309 30262 74668
310 40087 94227
311 28799 21731
312 97627 75475
313 -453 40875
314 55884 94071
315 63504 40303
316 55784 73837
317 7406 85929
318 60125 81944
319 67625 96650
320 52809 91416
321 44070 80217
322 13096 84816
323 78147 83126
324 71541 40809
325 26062 62430
326 7946 77913
327 16406 78783
328 22870 58715
329 3861 37125
330 30313 60088
331 13713 43429
332 8967 18071
333 78665 66536
334 15354 81670
335 75213 52434
336 55562 78150
337 14344 52409
338 38009 19445
339 2392 65669
340 17090 77587
341 68166 62439
342 7841 56858
343 51496 53640
344 42367 92787
345 55616 100598
346 93814 23690
347 11651 83199
348 3596 69381
349 14303 16869
350 25940 63275
351 38497 74522
352 24125 14735
353 10655 55411
354 71223 93774
355 27574 36438
356 61965 36007
357 42192 45548
358 72934 41799
359 51106 32689
360 24005 57899
361 10637 78177
362 18586 74880
363 4808 22577
364 26332 3796
365 5084 91958
366 41964 63730
367 11224 19491
368 47184 94578
369 27591 84446
370 58073 88297
371 40451 53818
372 1373 75031
373 88270 82163
374 2533 43362
375 16654 76499
376 42919 100632
377 6012 64048
378 65751 32149
379 52059 75937
380 35151 27661
381 11306 93322
382 8970 75546
383 24255 63657
384 78429 66449
385 -1862 33465
386 80847 63280
387 21636 94984
388 76434 55971
389 16739 39541
390 44214 94851
391 30381 65510
392 25175 48502
393 26952 88938
394 57989 69205
395 36934 75063
396 63046 87672
397 68312 59264
398 29938 44150
399 7501 65077
400 10949 83024
401 18673 70098
402 4729 91215
403 15983 27020
404 24251 45380
405 41745 65546
406 10189 102715
407 50765 95991
408 33825 7754
409 48747 101434
410 31623 89842
411 36320 57608
412 19208 68332
413 2122 16188
414 32084 58614
415 29381 45142
416 56144 89759
417 41538 88815
418 76142 73184
419 24892 85661
420 48201 19337
421 64912 56930
422 55277 36387
423 14277 53774
424 20909 33822
425 22833 87622
426 72983 41193
427 3098 82908
428 14921 64846
429 29643 86426
430 10350 69052
431 16671 91257
432 21732 70428
433 62418 66154
434 10222 72030
435 49954 100907
436 7280 92177
437 16176 76064
438 33438 84324
439 25135 35828
440 23234 22589
441 55667 62533
442 22249 104634
443 17071 84342
444 23481 87165
445 -5232 86396
446 5243 75985
447 9670 93271
448 6184 92580
449 29224 96789
450 43397 92601
451 92080 71668
452 20660 58231
453 48133 46394
454 52592 67553
455 22363 74802
456 -3126 21178
457 25508 107360
458 20560 77611
459 48120 34314
460 41875 75844
461 61462 80387
462 38723 54726
463 21544 99793
464 6932 48671
465 62595 84553
466 67571 85642
467 68676 39321
468 39688 30993
469 55326 71060
470 10590 76663
471 24516 93520
472 48107 65661
473 46091 44982
474 87310 97469
475 18169 23372
476 25045 42361
477 18783 35278
478 62997 85865
479 57782 62586
480 18246 79549
481 43742 32039
482 68693 80164
483 9862 65816
484 96859 11299
485 51338 66072
486 62210 57680
487 28306 30625
488 25548 80225
489 23399 5108
490 7178 47706
491 24995 82838
492 13982 96006
493 59178 47197
494 29455 60225
495 77635 89753
496 14079 85792
497 13187 49419
498 95468 53746
499 48408 46176
500 -11449 43154
501 14655 72486
502 27607 68228
503 17337 69959
504 14670 82400
505 71931 19565
506 12540 42185
507 95175 64056
508 27911 58487
509 27382 45874
510 62830 62358
511 38123 59419
512 44367 98522
513 43813 47737
514 49996 72553
515 2892 32053
516 59865 67041
517 49478 96187
518 -1186 65705
519 41473 6861
520 54580 52013
521 91569 38555
522 21257 103056
523 38293 45682
524 32977 75819
525 25783 63511
526 31211 51819
527 26999 75437
528 2682 52255
529 92741 68994
530 33969 33995
531 41017 84369
532 -451 49090
533 53549 91736
534 33767 61529
535 16294 55719
536 23124 46056
537 52185 80047
538 30042 77662
539 64186 56723
540 36637 83044
541 42281 74208
542 58220 92174
543 8446 51863
544 22977 39552
545 72553 99210
546 29360 59737
547 -2385 89395
548 -1154 85564
549 39219 96345
550 21891 33911
551 24585 76768
552 21490 76602
553 24201 59964
554 71442 57120
555 5115 85127
556 59841 26564
557 9200 70236
558 18358 80126
559 54947 65406
560 41062 97163
561 15062 79374
562 38056 83653
563 48243 86743
564 40971 76164
565 48951 81966
566 13892 56925
567 40240 44909
568 60772 87838
569 11021 99346
570 34670 92812
571 9421 84376
572 28215 66423
573 7293 24200
574 43610 24442
575 19508 67239
576 59296 85316
577 41169 60982
578 47535 47991
579 24881 80570
580 68214 68781
581 70342 97894
582 61348 11923
583 55046 63765
584 72596 54940
585 65079 90641
586 63 83884
587 41344 28350
588 24777 67839
589 6427 18386
590 10872 60054
591 88001 34008
592 31081 71724
593 78626 44059
594 26066 100690
595 64450 49713
596 63769 65733
597 42435 62471
598 45178 52098
599 64867 26476
600 21200 70489
601 19246 74261
602 19717 66921
603 23628 25267
604 40872 56881
605 26244 63852
606 58345 69615
607 62499 48313
608 5412 70219
609 30736 81173
610 77360 39541
611 26420 94359
612 18269 95651
613 35256 35283
614 27659 88664
615 41914 77162
616 1774 76925
617 19028 39546
618 54596 77884
619 54560 93196
620 23729 50117
621 76653 98114
622 47147 55456
623 67504 88235
624 61462 57439
625 58017 109133
626 52501 68927
627 35684 18804
628 94594 17218
629 7416 84504
630 9028 3371
631 14681 71086
632 22786 106849
633 57143 69110
634 27243 48765
635 65457 36204
636 27003 75879
637 57514 83083
638 16373 91245
639 32349 87399
640 10719 74720
641 23983 58810
642 18025 25626
643 53046 82678
644 16550 13250
645 64205 47448
646 36809 73253
647 1413 12621
648 61624 58860
649 84502 80130
650 30083 75339
651 62867 56229
652 25457 96076
653 7493 43984
654 37981 15367
655 66909 73074
656 24651 41963
657 72113 51631
658 16707 79229
659 14918 81132
660 48035 72552
661 97691 69239
662 23688 22353
663 30080 68652
664 12953 51637
665 35345 47098
666 9280 69174
667 69959 81639
668 13334 69168
669 57625 77094
670 29210 9308
671 81198 40334
672 65898 68688
673 36157 87810
674 7324 32361
675 11708 17315
676 66698 33440
677 42253 60821
678 606 59387
679 10085 92891
680 29200 35563
681 7536 62535
682 58089 29052
683 13306 9590
684 41337 64254
685 73791 62834
686 97417 85370
687 3629 70763
688 32643 45900
689 29809 47736
690 33125 67184
691 50331 86733
692 17471 53494
693 42972 41345
694 3071 89699
695 4506 75282
696 16513 88607
697 32083 88743
698 22977 80590
699 15152 57905
700 8750 82365
701 19977 32315
702 20865 69728
703 20578 18956
704 6792 60724
705 34547 16185
706 18921 58796
707 38165 44590
708 28116 85106
709 3811 60489
710 36853 16617
711 2629 20927
712 8329 95956
713 28578 90073
714 54308 88204
715 22775 99888
716 29752 60563
717 50372 31049
718 702 74292
719 7277 82624
720 2653 81823
721 30172 57542
722 78809 4825
723 -5490 7288
724 24033 44723
725 43689 70732
726 82577 88879
727 18308 67088
728 65358 76290
729 8768 77508
730 24756 61432
731 30874 80237
732 6140 54078
733 52981 59117
734 27553 65376
735 -1911 61481
736 35214 56397
737 3836 77013
738 58319 96756
739 47176 96026
740 11310 60247
741 74659 87308
742 16481 19686
743 78607 88315
744 52757 58784
745 76680 82880
746 64446 44380
747 39500 95728
748 3241 56830
749 38374 40843
750 -2825 50016
751 19274 106014
752 46132 28029
753 26944 105438
754 16453 93620
755 53689 84788
756 45311 90726
757 25913 61702
758 27201 80844
759 27146 44477
760 301 75519
761 -988 58735
762 20707 96678
763 57831 63791
764 52295 98850
765 21061 52662
766 36009 58337
767 39625 93163
768 62543 51853
769 23915 99002
770 53999 74414
771 15991 46049
772 6876 49194
773 10519 62531
774 26260 77075
775 51789 93474
776 75876 75182
777 13806 101208
778 60441 15527
779 36387 45733
780 36873 69546
781 12494 79487
782 66082 34343
783 59507 82658
784 40351 46277
785 9699 58942
786 50870 30760
787 27015 85403
788 29091 25492
789 25163 64301
790 28457 76126
791 40356 37775
792 50604 66115
793 5162 76395
794 46687 54705
795 52 29973
796 25000 88538
797 13241 81979
798 20531 43579
799 44647 61475
800 -8507 70651
801 64112 78806
802 58096 79424
803 48366 86660
804 -373 97701
805 44831 73806
806 2137 55621
807 22780 85102
808 40811 77942
809 35050 88459
810 35008 63037
811 57997 60429
812 34318 39767
813 -3384 2823
814 80759 95684
815 40605 96744
816 10454 86300
817 58264 85544
818 63798 96846
819 77990 78190
820 61870 25812
821 79574 94284
822 59811 35519
823 26834 19730
824 60711 95186
825 27854 20947
826 17848 77229
827 40257 75496
828 3656 98445
829 52483 23838
830 24939 29687
831 -1617 79866
832 56737 29394
833 61091 74805
834 26726 92958
835 32884 31683
836 89525 50389
837 16867 28225
838 68947 75953
839 81658 54943
840 28423 62847
841 38507 82543
842 8773 48059
843 61842 52893
844 43421 41127
845 49581 39957
846 68889 83192
847 16667 60048
848 65782 83586
849 42100 51804
850 865 54832
851 81511 49117
852 63415 88547
853 64365 64024
854 35334 38439
855 68410 84912
856 56385 59641
857 57777 98692
858 41931 69837
859 17478 52849
860 24784 90395
861 8730 76607
862 46270 82045
863 38772 44507
864 7567 51070
865 74652 89107
866 51013 25566
867 36641 102309
868 71220 72093
869 1773 96646
870 24608 24315
871 59432 39891
872 24775 106052
873 31742 78200
874 39490 27712
875 41161 98118
876 59853 43149
877 24164 49153
878 33247 93043
879 31655 73676
880 6608 67011
881 46709 78112
882 18497 5911
883 57857 102408
884 32923 9371
885 79213 59308
886 23086 94954
887 22717 81485
888 51465 87976
889 31060 72955
890 88692 95740
891 7697 82672
892 39429 50752
893 9382 83087
894 78539 96537
895 33505 72603
896 49140 78763
897 48993 103750
898 20585 53283
899 -7348 20642
900 20980 24648
901 71391 66618
902 28005 58580
903 19348 23766
904 18439 59837
905 57671 77521
906 2861 76973
907 49357 44200
908 64570 63557
909 17611 47644
910 12682 43915
911 38301 68447
912 63474 96315
913 27928 53886
914 26031 50608
915 12374 82516
916 28784 23537
917 22165 91860
918 41921 52740
919 28851 94649
920 28130 79518
921 78714 50299
922 55265 83834
923 26918 53238
924 45561 52418
925 24007 78888
926 5041 58212
927 73475 52553
928 21326 68085
929 87181 100140
930 40043 57272
931 59830 42882
932 57851 82236
933 77573 49091
934 29229 90294
935 40267 34353
936 42593 40596
937 9962 51428
938 70084 82081
939 21211 54373
940 2768 67723
941 60212 82725
942 64808 48489
943 59182 63692
944 21853 38900
945 10259 86377
946 54036 47092
947 26843 77037
948 49858 88342
949 2875 72205
950 14884 50831
951 26776 73729
952 76929 49875
953 51279 97775
954 7187 84494
955 18732 82560
956 8990 74927
957 28159 48674
958 23080 58035
959 6512 39613
960 65165 21810
961 34216 94920
962 45637 105979
963 73300 70707
964 3057 32515
965 57351 62055
966 27618 66731
967 315 57690
968 85017 47466
969 60581 61294
970 9691 92919
971 11252 67802
972 24580 69052
973 13156 59805
974 2641 92112
975 31701 102006
976 79555 66524
977 44464 85277
978 79685 54478
979 54867 42645
980 84069 5494
981 62300 98351
982 24550 66059
983 11003 93207
984 71999 100638
985 64066 89061
986 13785 25370
987 46466 62217
988 53310 68763
989 -5440 101749
990 37319 41214
991 14118 47477
992 896 74324
993 71360 98198
EOF
