NAME : lhk
TYPE : TSP
DIMENSION : 155
EDGE_WEIGHT_TYPE : EUC_2D
NODE_COORD_SECTION
1 80000 20000
2 59668 28777
3 66191 17323
4 61852 15934
5 42760 48085
6 42476 48676
7 56491 34355
8 46517 66806
9 48015 77501
10 46145 88568
11 50843 88163
12 53944 87897
13 51214 88131
14 39152 88993
15 53698 87918
16 53498 87935
17 54843 85958
18 56295 87481
19 47207 66899
20 46030 70974
21 36889 89365
22 38710 89208
23 30809 89111
24 22416 81723
25 30513 87457
26 30025 86722
27 20700 87933
28 19015 87250
29 22353 81152
30 25986 81815
31 9993 89551
32 10488 90063
33 8371 88265
34 22353 81152
35 10498 88587
36 10545 78919
37 10433 81074
38 11002 70865
39 10552 78794
40 9385 78375
41 13478 65861
42 10980 71137
43 11794 53010
44 13629 64075
45 12761 61171
46 12280 61536
47 27510 62754
48 36854 66427
49 35275 65379
50 28354 50795
51 22434 80745
52 26453 54592
53 26862 61668
54 37593 69300
55 29566 63245
56 35143 70780
57 46817 71433
58 46005 68726
59 46944 65563
60 47038 59897
61 44296 52079
62 47055 49187
63 52071 42118
64 54452 37937
65 32403 83546
66 55538 85563
67 42481 68906
68 41956 69628
69 45482 66276
70 32910 64670
71 27742 57216
72 24875 52096
73 30953 50155
74 29395 49739
75 31278 49301
76 22434 47020
77 47102 48216
78 36273 45182
79 22434 47020
80 48562 49615
81 36273 45182
82 28380 25312
83 30953 50155
84 30458 24973
85 31420 26065
86 34712 27071
87 56068 36873
88 37302 27297
89 37036 16532
90 39240 18869
91 37036 16532
92 16781 18548
93 27140 19225
94 28380 25312
95 27683 26084
96 28380 25312
97 14585 24928
98 11782 15633
99 12329 15826
100 27140 19225
101 11794 31784
102 10385 28443
103 11787 42612
104 13185 39937
105 8116 32396
106 14699 48551
107 11760 48686
108 14626 48573
109 13667 47991
110 11395 50997
111 12916 51344
112 16275 53293
113 53201 87961
114 55109 87112
115 64346 70628
116 64005 70999
117 47954 70702
118 56717 86030
119 62549 86485
120 64870 88524
121 66500 85094
122 66606 86921
123 79188 87955
124 77449 88478
125 79022 89544
126 85917 83282
127 85945 83263
128 86019 83674
129 66398 86899
130 74091 80399
131 68103 70286
132 68496 87125
133 64194 72918
134 63852 72449
135 67330 71341
136 70066 61294
137 50748 64822
138 67982 62597
139 69671 60693
140 63852 61757
141 71140 60623
142 68292 55717
143 67299 59186
144 77071 47471
145 52574 42514
146 63733 48669
147 79351 35246
148 81251 49733
149 81581 50831
150 78397 50253
151 85231 51887
152 89267 47601
153 82216 31546
154 85535 19160
155 86141 17472
EOF
