NAME : lhk
TYPE : TSP
DIMENSION : 161
EDGE_WEIGHT_TYPE : EUC_2D
NODE_COORD_SECTION
1 80000 20000
2 82633 16264
3 84340 15289
4 43580 19964
5 31367 16232
6 37537 16852
7 34924 19835
8 12820 15723
9 12745 16663
10 58452 45493
11 30295 47386
12 34026 39189
13 26163 43933
14 17348 44126
15 28247 66510
16 12488 70694
17 13286 72149
18 11641 51560
19 10297 71284
20 19652 61725
21 17434 71706
22 10168 78594
23 12794 66266
24 10095 79240
25 10518 80340
26 21529 89749
27 29365 90464
28 26526 90205
29 44354 90809
30 29281 83460
31 31468 89116
32 28151 86964
33 42869 85977
34 31865 81362
35 43140 88893
36 52568 88545
37 61237 87127
38 77003 90295
39 79435 89238
40 63327 85118
41 63264 86379
42 55272 88103
43 67375 69971
44 68650 73211
45 71343 86347
46 71780 88169
47 73109 75783
48 64457 84126
49 42005 88333
50 47486 88909
51 59692 64739
52 42986 69442
53 45420 71032
54 31367 69049
55 16696 66797
56 18083 61116
57 13752 66716
58 12536 66977
59 11088 69309
60 12972 64553
61 14613 62964
62 9697 47573
63 11365 48106
64 18082 62395
65 10377 42672
66 8101 49283
67 10215 49532
68 11417 48051
69 12462 51891
70 9408 47481
71 11725 36972
72 12489 34561
73 12154 26710
74 10249 22515
75 10233 16382
76 12886 19563
77 11890 17193
78 12761 16984
79 28417 19945
80 25048 22968
81 26248 37215
82 33299 44648
83 29437 37665
84 37781 50651
85 34383 56226
86 20784 66718
87 31000 65924
88 51138 57504
89 60515 59158
90 59360 64294
91 60759 62941
92 73710 76575
93 69782 71851
94 69228 67575
95 57505 55185
96 72127 74486
97 85998 83291
98 77639 72260
99 62275 48184
100 56692 49297
101 64319 47984
102 61392 47918
103 52159 28075
104 56090 45424
105 74475 50070
106 66444 48421
107 81824 29224
108 84525 37718
109 78785 44587
110 85930 50821
111 84032 51332
112 83052 48822
113 67516 47528
114 51511 26910
115 49399 45763
116 44254 90735
117 44294 90863
118 40413 67168
119 37097 64536
120 57291 54903
121 35059 64408
122 36139 64554
123 36606 63671
124 48034 71886
125 47145 71346
126 47672 71535
127 25501 65527
128 30283 66158
129 33317 45523
130 29727 67281
131 28645 70369
132 29203 78139
133 28843 66967
134 31624 70950
135 26827 76300
136 25522 89153
137 15390 80219
138 16064 89251
139 12057 84066
140 9294 88633
141 9707 89310
142 9294 88633
143 10496 72375
144 29173 84040
145 10923 72598
146 29335 82372
147 29480 79760
148 29870 67332
149 33315 45413
150 41218 37669
151 43372 30261
152 40974 20233
153 38593 19029
154 40708 17658
155 44303 20363
156 46366 25113
157 60432 20690
158 57351 26396
159 64476 15952
160 61690 15914
161 64476 15952
EOF
