NAME : lhk
TYPE : TSP
DIMENSION : 140
EDGE_WEIGHT_TYPE : EUC_2D
NODE_COORD_SECTION
1 80000 20000
2 68600 15973
3 56993 14255
4 37391 16700
5 37921 17910
6 32105 24051
7 30051 20374
8 18183 18481
9 32551 19135
10 19596 13534
11 57599 29347
12 52630 36706
13 52698 36617
14 58251 37084
15 55056 37950
16 51061 37707
17 50968 38612
18 50350 42266
19 51699 46930
20 46417 53418
21 52630 36706
22 55693 42894
23 57891 57234
24 73028 49195
25 72371 48604
26 65165 49680
27 65932 50991
28 59814 56767
29 69953 78662
30 52684 34717
31 37228 54093
32 39195 54392
33 41990 50970
34 44057 58345
35 62870 76354
36 58336 75339
37 53145 74981
38 49274 82536
39 47691 79913
40 45019 79420
41 41571 70544
42 38902 72931
43 40946 60073
44 40289 61198
45 40290 70178
46 40402 58554
47 38691 40496
48 31780 50384
49 28145 43459
50 31987 39705
51 29516 41811
52 28194 42076
53 44509 38094
54 21954 47343
55 22954 64194
56 22904 76148
57 23040 76608
58 10279 77938
59 10406 75381
60 10818 75486
61 12250 15525
62 13455 14472
63 12496 15648
64 12074 20082
65 12030 30309
66 10615 31429
67 11543 43508
68 11963 45652
69 11982 41214
70 9389 42638
71 11936 51616
72 11910 57395
73 11276 59429
74 11888 62173
75 21470 67205
76 29458 68446
77 22576 64149
78 23040 76608
79 26487 75060
80 21256 70575
81 22118 73489
82 20643 77039
83 17139 73933
84 10275 78447
85 9518 76202
86 10198 84724
87 10301 75260
88 11412 89764
89 11820 88778
90 11283 88434
91 10978 87237
92 10668 90261
93 10719 90341
94 22704 89765
95 14671 89764
96 14615 90540
97 24637 89765
98 21653 83155
99 26756 80894
100 26518 89765
101 41416 89660
102 38046 89766
103 43302 89586
104 46259 87239
105 49621 89337
106 50524 88772
107 28930 79318
108 48501 88440
109 51584 86559
110 58372 88993
111 45566 89497
112 58852 88974
113 61993 88850
114 65487 88713
115 70885 88420
116 74488 79959
117 76212 88291
118 74992 80103
119 79350 88167
120 80417 88611
121 80867 86403
122 81127 86674
123 84266 82756
124 86001 83346
125 81706 79470
126 76044 78241
127 81449 50243
128 71632 61911
129 56867 55607
130 62376 58253
131 63165 60769
132 81667 56095
133 75962 61320
134 78952 46039
135 81494 59664
136 78962 52205
137 85175 52060
138 83888 27576
139 81748 36556
140 86268 17591
EOF
