NAME : lhk
TYPE : TSP
DIMENSION : 993
EDGE_WEIGHT_TYPE : EUC_2D
NODE_COORD_SECTION
1 80000 20000
2 8835 90309
3 25765 76301
4 13278 67817
5 7760 20183
6 35965 100758
7 54370 36054
8 38026 48195
9 27771 3890
10 57336 74872
11 12313 31805
12 18953 47224
13 55735 83076
14 23135 88588
15 2681 70171
16 20447 107163
17 28046 81158
18 16198 86396
19 64036 79937
20 50184 32112
21 33070 100576
22 24528 68239
23 30108 96322
24 53513 99788
25 68381 19210
26 94910 86129
27 49365 19679
28 57114 34501
29 28364 100801
30 75677 33519
31 42751 68838
32 17764 84299
33 20855 29393
34 84113 33454
35 24686 58904
36 47376 65837
37 25567 96131
38 27274 37442
39 25282 46336
40 1813 93584
41 60998 79602
42 29564 88993
43 57796 93895
44 59202 42399
45 30469 84308
46 63793 37387
47 6840 39680
48 4520 43857
49 16766 81203
50 33145 50987
51 22137 89173
52 70164 80844
53 67581 99332
54 28012 94271
55 48848 55986
56 63839 33624
57 32342 75716
58 5196 59120
59 27965 76438
60 25476 59174
61 27125 77269
62 10929 19027
63 52503 88170
64 48121 50964
65 33032 12778
66 19993 34582
67 51209 42492
68 58336 70823
69 65591 64826
70 51348 44971
71 66085 52623
72 76880 78109
73 41133 100660
74 29178 91454
75 -201 22245
76 1444 80871
77 29738 86608
78 2716 54517
79 29031 43107
80 22403 66120
81 40006 65045
82 13394 68015
83 48653 79810
84 66017 73423
85 60053 55489
86 57839 50530
87 -3983 30799
88 4236 36896
89 16599 79920
90 44408 54487
91 -5949 82624
92 44033 78760
93 40654 92411
94 14981 86468
95 52317 74200
96 10146 81131
97 23943 91327
98 7960 71742
99 92854 26918
100 17327 75682
101 9277 51192
102 45307 58321
103 67863 56544
104 61196 3000
105 28580 58224
106 37793 95758
107 2974 88941
108 91175 46718
109 4420 88466
110 53663 70871
111 68104 72790
112 39561 11707
113 59843 83171
114 13930 68236
115 20262 54265
116 7913 95133
117 -1086 49797
118 69451 49122
119 56661 98557
120 12799 72883
121 31608 89982
122 20471 20485
123 2055 60281
124 7744 43570
125 33054 75352
126 15761 35567
127 46857 74475
128 31882 51482
129 -3139 35655
130 35028 95840
131 8684 60352
132 15369 57648
133 27126 66597
134 12659 26683
135 38610 71360
136 83091 93872
137 83043 46985
138 34371 61281
139 11975 100394
140 37848 100209
141 44653 75399
142 30662 85029
143 17283 58767
144 76345 52517
145 38641 78644
146 71590 98051
147 41928 101333
148 37766 54000
149 22281 42555
150 76998 97345
151 33359 88774
152 29029 31400
153 65279 67406
154 5174 82279
155 12673 43885
156 49483 35138
157 48834 99965
158 7720 40198
159 70644 91759
160 77875 84397
161 38999 30705
162 51822 52843
163 14544 81846
164 39392 68042
165 56400 28545
166 50133 103361
167 2260 54754
168 25938 82912
169 28840 80466
170 3461 88264
171 92726 59265
172 41819 64760
173 36986 89240
174 72062 72313
175 17588 49905
176 36714 76748
177 62533 2536
178 70914 92367
179 7844 88094
180 53621 79563
181 41890 38694
182 38947 99312
183 10225 40653
184 19258 89569
185 23479 70622
186 54983 98278
187 51007 57854
188 -10089 21948
189 49696 51967
190 39680 80371
191 66294 51326
192 38201 33304
193 10959 64542
194 47948 88061
195 40878 48305
196 77398 43988
197 19201 57308
198 50550 36935
199 75989 54357
200 6595 79895
201 8634 108815
202 79797 65598
203 65102 88229
204 4943 84097
205 89716 74876
206 25455 40931
207 44321 99331
208 -5713 67396
209 47919 65949
210 49342 28724
211 40638 61246
212 11592 7704
213 14987 47263
214 6496 91892
215 -5563 58211
216 46275 87185
217 46586 69884
218 58678 45710
219 10598 54667
220 8373 71132
221 17578 68793
222 29313 32700
223 1105 55118
224 25979 85593
225 -58 76184
226 41440 69039
227 36568 75903
228 15783 100405
229 10830 39372
230 59014 79490
231 34136 87850
232 41832 88681
233 73698 44809
234 24874 58555
235 -1881 56912
236 48280 73858
237 20920 100372
238 37741 53973
239 64106 73715
240 39556 96610
241 2360 89596
242 42595 87774
243 85381 53230
244 95842 11171
245 19144 85167
246 52030 85833
247 22763 23779
248 11071 97185
249 39833 72312
250 14914 81974
251 42138 29115
252 66201 93441
253 36522 79520
254 25426 86572
255 32056 12909
256 3330 55617
257 35591 89554
258 36486 33328
259 3993 24082
260 55448 83523
261 78786 -4738
262 36644 33139
263 57813 48657
264 11168 83718
265 49083 69873
266 34442 104867
267 28024 70606
268 33192 54657
269 12939 36127
270 40626 53602
271 40257 77730
272 26325 87888
273 14156 67430
274 66981 96124
275 80411 35576
276 24054 70661
277 56045 48828
278 7397 76054
279 28876 31666
280 20704 52478
281 56986 80072
282 48150 48340
283 49470 58543
284 15376 45514
285 31448 18964
286 66781 86477
287 59085 62785
288 34694 8220
289 20295 81628
290 38754 28754
291 62062 77076
292 41188 64432
293 42212 85463
294 61466 56621
295 36578 85907
296 58035 18713
297 30681 75770
298 59421 72533
299 -2265 76291
300 6181 33307
301 2506 80592
302 8834 89846
303 36703 48791
304 -3280 50029
305 15220 88720
306 36749 94863
307 26937 102944
308 31960 22557
309 33505 65342
310 35588 98112
311 35005 18285
312 91329 79695
313 450 46660
314 58866 102738
315 61559 33695
316 50427 76781
317 12921 82309
318 61799 79732
319 76698 95875
320 45608 87256
321 48061 86235
322 3849 74767
323 86101 92681
324 70547 36825
325 28138 60856
326 21836 79364
327 14885 76268
328 24213 69663
329 3047 43856
330 19278 63749
331 -6151 42625
332 -418 23229
333 80684 79418
334 29453 74041
335 76968 59416
336 63849 83874
337 8759 58727
338 40172 22027
339 3952 77056
340 27776 77447
341 61581 66104
342 15090 45870
343 42027 56129
344 43474 80505
345 61230 90736
346 92484 8654
347 -652 74249
348 -252 53733
349 3388 11045
350 30586 58755
351 35573 77799
352 27544 14659
353 13738 49729
354 76956 85226
355 20473 33426
356 54805 39257
357 33005 44291
358 54592 52134
359 60234 37586
360 31884 65498
361 15400 81086
362 19667 76009
363 9078 19672
364 36966 24273
365 12898 83319
366 37926 67928
367 20012 4348
368 64937 93121
369 30204 84910
370 62407 83234
371 43700 63596
372 1422 76984
373 99735 80286
374 6779 53525
375 10021 75472
376 39006 102956
377 12338 64814
378 63957 44344
379 63036 77786
380 46462 27425
381 6648 99795
382 1396 68869
383 25264 61067
384 76541 61653
385 10721 32394
386 72162 76050
387 20727 99594
388 79541 58683
389 19603 35062
390 38118 86910
391 29891 56915
392 20851 47827
393 29818 90653
394 64143 66929
395 35959 94234
396 65299 82328
397 51661 54074
398 31299 44350
399 18016 65851
400 11429 82023
401 13656 62568
402 417 86880
403 15493 22820
404 15951 46186
405 29318 68928
406 6130 94457
407 44370 80134
408 35451 11254
409 46117 86691
410 26004 95346
411 48797 55310
412 21416 73369
413 3719 15195
414 39055 51180
415 29863 44108
416 55492 90707
417 47712 88529
418 76313 84289
419 23888 85824
420 61277 25370
421 70864 50113
422 49146 37977
423 15669 55915
424 13635 36952
425 22483 87480
426 73689 52469
427 1794 93109
428 11126 77011
429 27065 89917
430 21346 74132
431 23689 88917
432 15287 77135
433 56565 74062
434 12343 85784
435 50888 98405
436 -2113 105536
437 7502 82051
438 42646 89153
439 25617 42682
440 35381 22713
441 70027 64310
442 11613 99366
443 23078 93999
444 10464 76146
445 11806 87728
446 8061 77642
447 9199 92695
448 2239 82916
449 37997 95681
450 39921 90562
451 95879 81009
452 28303 51599
453 45769 44891
454 48418 77009
455 36625 73881
456 3505 25388
457 26263 108030
458 12740 66269
459 51412 39628
460 40910 65357
461 56799 84339
462 38700 54594
463 7878 99455
464 12312 44672
465 68890 94404
466 73421 81642
467 81926 34904
468 37400 32478
469 46124 69125
470 13117 73862
471 30043 94931
472 43107 62246
473 47761 54313
474 87534 92522
475 12384 21768
476 28852 44587
477 15374 49039
478 65965 87219
479 63957 59095
480 8952 79047
481 35391 34276
482 67705 86095
483 11949 68484
484 102697 2345
485 40604 72636
486 62179 52425
487 25499 32812
488 21308 69183
489 11983 3416
490 1203 52970
491 23586 75556
492 22944 103430
493 54450 41890
494 37181 64082
495 67948 94225
496 16121 87475
497 18727 46012
498 93027 56292
499 40086 51659
500 372 41427
501 11951 72211
502 29789 78949
503 15133 63063
504 22863 72342
505 68189 16974
506 9826 49789
507 87620 59452
508 21862 60619
509 24420 45042
510 61093 71758
511 24001 52802
512 49289 98579
513 51316 51540
514 46941 81787
515 2099 35975
516 47925 68162
517 58823 99718
518 11476 76231
519 35514 7141
520 54434 54386
521 90279 26215
522 20435 95395
523 39400 53140
524 40871 71838
525 14631 70758
526 24509 39379
527 28192 70081
528 9128 53826
529 78507 76395
530 42695 36615
531 52627 78835
532 1979 64042
533 44513 88208
534 38016 57119
535 16534 46584
536 25673 46454
537 54441 91350
538 25781 75186
539 70327 61110
540 45519 86197
541 40227 68170
542 48594 101871
543 20009 58085
544 24848 46554
545 63786 103218
546 30653 61549
547 4350 85578
548 577 94933
549 36554 91654
550 34108 43024
551 21049 77616
552 11300 76379
553 24227 72128
554 74312 46167
555 -2119 74874
556 40700 31534
557 5853 76045
558 19701 92443
559 55817 62831
560 41099 103239
561 13585 76636
562 31190 79884
563 37768 73297
564 49995 78519
565 54021 81007
566 11676 57501
567 38534 41334
568 59846 93192
569 7794 96899
570 39859 96245
571 2371 91217
572 36467 76442
573 10748 25708
574 39667 12371
575 37657 69908
576 50337 82253
577 32667 63844
578 48089 55884
579 24619 80472
580 74865 77776
581 74686 99491
582 62588 17937
583 49579 71540
584 79839 63222
585 52544 94414
586 4047 82945
587 41150 20478
588 32508 67679
589 8676 7463
590 5824 50949
591 86955 35998
592 24888 71587
593 85028 49818
594 27099 95982
595 62929 45694
596 60650 65908
597 31126 66062
598 48526 56577
599 74834 24870
600 27819 59935
601 22412 72486
602 17545 71446
603 12083 31375
604 33307 56112
605 24912 75121
606 56157 67173
607 64643 46568
608 588 62442
609 18916 72416
610 84968 39270
611 30031 102070
612 24235 101469
613 21367 43318
614 35691 94887
615 42618 78748
616 13513 74678
617 9309 53473
618 54326 64694
619 57029 100897
620 36571 35304
621 76950 103338
622 54976 58865
623 69660 92985
624 57949 46737
625 59256 98204
626 59201 56071
627 31745 21736
628 94062 22641
629 17534 82482
630 7926 -2184
631 14326 68069
632 27030 100101
633 56246 77070
634 23490 50756
635 57095 42846
636 20773 67654
637 50884 84433
638 7193 89430
639 31579 85256
640 8085 74751
641 21014 54838
642 19669 31534
643 44769 73148
644 28713 23241
645 62812 46106
646 35851 53045
647 5690 16590
648 58796 66823
649 83196 83886
650 42380 81103
651 67174 68686
652 16186 95751
653 10040 44777
654 46387 20556
655 78509 72683
656 26042 36975
657 70351 58897
658 15568 79377
659 23823 68566
660 45458 84862
661 100890 70665
662 15682 23338
663 37734 76416
664 19407 34960
665 25566 34466
666 14059 77224
667 69363 91624
668 2647 71489
669 58878 68677
670 27916 8404
671 73842 42825
672 53602 81912
673 31854 87864
674 5712 23166
675 7164 15514
676 65584 39699
677 44138 56259
678 13564 49797
679 12004 98276
680 22986 41494
681 3556 70580
682 49618 32873
683 5689 18158
684 45164 56739
685 87788 60641
686 103318 82815
687 5809 72075
688 43341 44881
689 31078 54244
690 31450 73243
691 50237 90243
692 24375 60474
693 32604 47924
694 5155 88250
695 1622 69708
696 16837 95564
697 24859 92056
698 21476 86912
699 25247 59501
700 23007 83582
701 12757 36646
702 27214 76973
703 29431 23176
704 20238 56522
705 35540 15925
706 28889 51728
707 30105 33743
708 35111 93494
709 3339 54614
710 24631 26584
711 9961 29928
712 3783 96536
713 6467 93053
714 47475 93196
715 25335 95084
716 39793 66826
717 53317 41134
718 13446 65617
719 13535 86606
720 -6111 90561
721 25686 64299
722 61562 14101
723 -6072 12892
724 16681 38866
725 29193 79239
726 91248 81428
727 21579 76236
728 72351 70858
729 -6196 79087
730 29263 56738
731 30621 73350
732 15137 49341
733 44315 59040
734 29331 66095
735 8307 67482
736 25393 49395
737 12297 82844
738 58933 90956
739 26559 98504
740 18568 67662
741 84908 82662
742 10136 30121
743 76321 92534
744 57429 62129
745 74842 70464
746 74991 45399
747 48093 94000
748 10145 60491
749 31598 41911
750 7686 47853
751 11161 100939
752 63931 36094
753 37322 103605
754 17168 102464
755 46791 84962
756 43297 76198
757 32021 66236
758 24615 80966
759 20231 59327
760 7404 89027
761 4552 57971
762 34125 96793
763 58549 66353
764 51700 91223
765 20053 66884
766 38838 62367
767 48301 103395
768 66527 53013
769 24560 97253
770 44739 71033
771 767 36830
772 19670 38638
773 18150 62225
774 31683 85608
775 50468 98731
776 72438 81532
777 20686 98623
778 60138 14674
779 31213 49345
780 44906 71046
781 17886 78944
782 66402 39475
783 54204 67323
784 34143 43634
785 9363 68903
786 56314 20965
787 32140 91735
788 28095 22749
789 30718 62364
790 23413 66138
791 44324 29844
792 53880 62870
793 5233 94101
794 61744 64037
795 2538 28846
796 22519 95493
797 8216 74503
798 19828 47969
799 49257 56257
800 3333 62101
801 50166 75076
802 58176 82057
803 49445 76227
804 8443 96196
805 41795 66283
806 10845 53212
807 42742 86875
808 39700 79290
809 22372 99882
810 36322 60082
811 48454 65836
812 36883 32569
813 4990 4327
814 73603 94642
815 48474 99290
816 5977 86254
817 58476 86177
818 67832 102787
819 69008 85611
820 56905 22708
821 78439 96020
822 56004 24277
823 42166 22362
824 61517 93533
825 26293 19942
826 18801 80578
827 59200 76359
828 12290 104902
829 65833 27366
830 14893 30611
831 619 79303
832 60111 26839
833 58132 81104
834 17592 83102
835 39116 39305
836 90033 37550
837 20831 24684
838 78513 74703
839 90500 47367
840 39045 62555
841 38285 81540
842 522 43101
843 56256 48775
844 54592 39585
845 48024 30829
846 64674 84279
847 27192 67470
848 52429 78730
849 45458 46235
850 986 55071
851 79525 51362
852 58777 88511
853 66110 64505
854 31327 36115
855 79125 95060
856 47767 76783
857 57966 99530
858 56486 82286
859 21518 46341
860 16687 93534
861 6675 75489
862 53271 82714
863 50257 41844
864 5881 32769
865 75385 74722
866 44467 30222
867 36961 102543
868 71556 68438
869 -1972 90369
870 33730 33753
871 53795 48880
872 24185 107244
873 27980 87613
874 50963 26437
875 41532 101392
876 56275 42903
877 28793 52669
878 30280 87009
879 35305 79329
880 8813 65417
881 62011 79100
882 37 2272
883 42916 100367
884 35837 20207
885 93072 52609
886 20748 91103
887 24132 88694
888 56453 86687
889 22696 70696
890 86601 86709
891 2050 84885
892 34544 52207
893 13683 80862
894 77809 95672
895 46118 73705
896 53588 77283
897 55128 93507
898 19248 70155
899 6981 33861
900 21106 30769
901 69061 63533
902 20850 67180
903 22328 32336
904 26936 66162
905 66249 74793
906 -1371 76398
907 44078 42294
908 56830 57562
909 22808 50758
910 9464 47938
911 41526 66224
912 50148 104284
913 37457 66372
914 24000 46207
915 -1807 84790
916 25271 20811
917 18985 95694
918 34586 47364
919 34293 85928
920 29291 82870
921 90479 50724
922 53320 68988
923 26095 55262
924 55913 50493
925 18041 64309
926 4229 55498
927 63200 57385
928 23235 70905
929 79183 107463
930 34925 57730
931 51148 34106
932 61569 82489
933 78604 44545
934 16769 92446
935 44042 22138
936 56152 40002
937 13989 47278
938 69831 81612
939 23017 45240
940 5279 67032
941 49477 76762
942 63373 53164
943 64107 45927
944 16314 27451
945 -6597 83520
946 46267 49965
947 17495 75009
948 56859 85310
949 10744 63493
950 21513 55853
951 21917 68522
952 84739 57070
953 56341 92464
954 3227 95099
955 38440 82930
956 10206 74002
957 24164 55969
958 29530 62114
959 5303 40853
960 63090 21567
961 37435 90561
962 47109 99009
963 61555 74914
964 6719 26414
965 50243 54257
966 30924 60644
967 9342 67888
968 71219 44733
969 52879 66001
970 4630 90320
971 7155 56648
972 19527 66408
973 16191 58585
974 10337 96588
975 39877 95287
976 80909 69599
977 33041 78837
978 78233 69730
979 65235 44128
980 80773 17532
981 60063 88948
982 13381 51604
983 2802 78134
984 76979 93978
985 51830 89886
986 14286 34297
987 44648 69858
988 64125 67101
989 1552 97663
990 33744 46243
991 13491 37947
992 13601 77350
993 61055 96112
EOF
