NAME : lhk
TYPE : TSP
DIMENSION : 175
EDGE_WEIGHT_TYPE : EUC_2D
NODE_COORD_SECTION
1 80000 20000
2 86268 17591
3 85002 27854
4 86139 63664
5 70146 56278
6 51014 65460
7 42160 61180
8 30907 59100
9 40336 66302
10 58865 70525
11 47439 67375
12 45424 68455
13 42660 74494
14 51519 70298
15 43807 83314
16 62140 82875
17 45814 69414
18 49258 74322
19 58649 70581
20 52275 69196
21 56823 69341
22 73121 61019
23 65616 79432
24 68026 79526
25 49496 66273
26 64373 67250
27 69130 69627
28 65766 61891
29 64079 62923
30 76742 71981
31 80776 73734
32 86689 65519
33 79372 42110
34 82455 46868
35 78132 45068
36 67366 47089
37 67725 49032
38 64141 63479
39 59728 60816
40 66487 59771
41 73104 60926
42 40647 58686
43 25004 58996
44 8525 74185
45 23471 63407
46 30101 59085
47 24911 60807
48 49341 89289
49 43483 89986
50 35988 83435
51 47335 89303
52 49137 88712
53 50019 89019
54 51274 86563
55 53298 85318
56 62850 79447
57 43809 89328
58 50246 86536
59 50526 88851
60 69908 86368
61 59282 70417
62 61256 85992
63 70869 88426
64 49825 89285
65 56093 92344
66 56245 90984
67 69560 85623
68 77015 91518
69 69678 85876
70 82727 80720
71 85161 83188
72 86121 81079
73 73179 80258
74 42194 89215
75 44115 91024
76 42965 90988
77 42389 90763
78 35498 90468
79 30176 87900
80 27166 90491
81 21505 90313
82 25174 86235
83 29573 87061
84 26524 83827
85 28174 88835
86 23737 90370
87 27561 86082
88 20810 90296
89 18327 88179
90 22964 90350
91 11110 87307
92 11328 91102
93 8286 86787
94 7986 87510
95 6831 75378
96 6861 77809
97 8409 87753
98 7001 76718
99 24672 68751
100 14164 71461
101 6883 75789
102 15283 66280
103 37462 64690
104 27620 64255
105 25886 66045
106 22842 68212
107 27181 70324
108 38526 65287
109 25121 76415
110 11512 74021
111 11308 77067
112 15811 67918
113 11794 72262
114 9824 57196
115 11959 71355
116 22432 49260
117 13588 69712
118 11388 43300
119 9824 57196
120 14827 68365
121 10295 50533
122 10769 43830
123 9848 44457
124 9825 57187
125 10725 44445
126 9824 57196
127 9794 57166
128 12968 54226
129 21785 47892
130 31321 23626
131 28832 38515
132 28780 38027
133 28339 38511
134 13911 32215
135 10997 40605
136 9533 40096
137 7103 39403
138 11558 32662
139 23340 16947
140 11900 27822
141 15234 15380
142 12605 17844
143 11392 17700
144 12540 15159
145 17878 13614
146 22430 16771
147 32215 20761
148 29041 23143
149 25889 20889
150 12959 32224
151 34520 14869
152 46871 29666
153 45851 29192
154 51346 43202
155 61741 22163
156 54950 30945
157 32675 20022
158 42332 27605
159 39798 38165
160 44116 36883
161 42404 43476
162 41540 40446
163 32195 41190
164 42245 48408
165 41969 64913
166 52489 43322
167 44864 49266
168 52478 42057
169 59150 25513
170 54901 39606
171 60115 24265
172 55597 28660
173 63101 28487
174 66946 15431
175 74453 13439
EOF
