NAME : lhk
TYPE : TSP
DIMENSION : 993
EDGE_WEIGHT_TYPE : EUC_2D
NODE_COORD_SECTION
1 80000 20000
2 5028 86573
3 40000 84148
4 16175 67586
5 -850 27446
6 45286 90385
7 59984 26031
8 44425 41541
9 23789 7824
10 49093 72563
11 19848 35322
12 24391 45896
13 55151 81919
14 22101 104868
15 -1274 64371
16 17959 98040
17 28932 87107
18 16081 94959
19 63406 79039
20 52820 39457
21 30789 102277
22 26249 77306
23 37595 81481
24 53642 101580
25 63593 21808
26 94766 85648
27 34187 20748
28 58675 21686
29 26001 96883
30 74559 43562
31 31327 62269
32 7870 80364
33 13116 36227
34 78679 36012
35 19889 59520
36 57072 58737
37 18229 87815
38 25236 39568
39 32137 47373
40 3826 101887
41 62441 82722
42 19133 74867
43 64609 94306
44 59353 49531
45 21884 91967
46 67614 38582
47 -177 35196
48 6896 52206
49 13377 82343
50 34364 58809
51 13093 84999
52 75704 67038
53 75309 93497
54 44299 90700
55 38079 60346
56 55877 22512
57 35299 63198
58 5385 54999
59 25306 94418
60 27695 52390
61 32081 81341
62 -1700 19177
63 46044 84680
64 52303 48215
65 27634 22568
66 9136 32609
67 54292 41542
68 67438 77350
69 63346 65541
70 49895 51790
71 62556 45361
72 68456 88343
73 38684 94479
74 22998 87228
75 -4462 32153
76 7572 81549
77 25417 79696
78 1882 70604
79 11246 37236
80 32267 68962
81 39204 72607
82 6294 61789
83 34470 80280
84 77369 68572
85 60469 57696
86 64515 57136
87 1577 30683
88 6533 32151
89 16233 86449
90 22934 58703
91 -8540 84022
92 58636 73906
93 37566 81169
94 9048 88244
95 51367 75651
96 12628 77042
97 35592 92568
98 3947 76493
99 99573 33182
100 26592 63001
101 14971 52656
102 47045 47577
103 75273 56376
104 66611 -6162
105 36514 61343
106 50822 98609
107 9330 95798
108 88605 62343
109 7019 90538
110 55033 67198
111 78966 60961
112 42778 23154
113 56093 65993
114 26417 79552
115 20042 63624
116 16737 95451
117 8698 49331
118 57105 50752
119 54698 89849
120 11383 68961
121 29969 92045
122 23003 31400
123 5651 55309
124 6134 44893
125 32990 77884
126 25662 29208
127 49416 80620
128 43239 59216
129 1975 40579
130 38979 88957
131 20400 72357
132 3936 57022
133 20576 66099
134 8292 29582
135 44746 66810
136 82514 99793
137 86778 53078
138 31718 62648
139 2126 94120
140 26898 100944
141 47068 77284
142 28053 87391
143 19315 47809
144 65345 44037
145 50647 72497
146 67516 87630
147 39396 91423
148 30495 56210
149 14977 36960
150 72475 89409
151 30127 95121
152 31442 39483
153 75918 59726
154 12341 93513
155 16157 54820
156 44365 42703
157 37316 91618
158 -3019 52064
159 77315 96812
160 69384 79742
161 33154 24892
162 55987 60693
163 4648 74834
164 35622 69291
165 40588 29789
166 45570 95716
167 2828 55077
168 28948 82616
169 13464 68032
170 14369 85989
171 98119 59816
172 36707 65301
173 44900 85368
174 67972 68670
175 10189 47922
176 38050 70831
177 64742 11947
178 60267 97149
179 4181 86440
180 53664 77673
181 43231 57492
182 47867 100291
183 18058 42833
184 20017 93567
185 13597 79208
186 61809 101464
187 42639 55026
188 2811 15822
189 62066 58058
190 37425 83244
191 61813 56371
192 31209 25467
193 13830 64756
194 39345 81657
195 37734 49688
196 82751 46332
197 5634 57738
198 54399 38516
199 89027 48476
200 3751 96873
201 10812 100015
202 79682 67549
203 66385 88729
204 -4432 77810
205 91183 78422
206 26989 26733
207 39504 90945
208 2118 65634
209 55292 65224
210 49887 28724
211 40873 52361
212 15437 9473
213 5167 30192
214 4422 89478
215 4364 58803
216 51273 85986
217 55625 59822
218 51168 39461
219 6342 48911
220 10069 67604
221 19876 80714
222 23073 26609
223 9973 55028
224 26377 87112
225 11432 75594
226 39121 79593
227 42093 76693
228 24973 101336
229 17763 46240
230 58370 81290
231 35391 97433
232 27957 85513
233 81588 43188
234 20737 65323
235 1797 67914
236 55612 68457
237 16026 85206
238 41486 52801
239 61397 64254
240 47101 91812
241 4195 80646
242 46660 79813
243 86051 48872
244 96551 10360
245 9221 79948
246 51807 78324
247 19257 18549
248 2925 89286
249 49231 75595
250 16814 88319
251 44244 39229
252 72532 98075
253 36278 77841
254 27372 97037
255 22700 18822
256 7754 67978
257 34013 84607
258 37566 43891
259 8014 18421
260 65495 85626
261 84228 7894
262 37965 23237
263 51186 61804
264 -349 84629
265 36766 57806
266 37977 98902
267 23437 69943
268 37793 59563
269 18745 19228
270 32614 52860
271 42095 78689
272 32865 94954
273 9585 69451
274 59771 84361
275 78942 43617
276 17457 65305
277 40547 47315
278 -4594 66343
279 31171 31383
280 19829 45071
281 57079 73846
282 51302 61121
283 55069 51326
284 19479 33954
285 23705 30336
286 70884 103159
287 55756 52978
288 47362 16050
289 16063 84827
290 49210 26362
291 63218 74379
292 30113 72422
293 42351 88070
294 59244 57308
295 35829 83895
296 67106 20006
297 23469 77604
298 72910 82680
299 1010 62739
300 6566 21559
301 2002 87011
302 6478 93748
303 27730 50149
304 8181 53818
305 9991 91956
306 55824 96933
307 28195 102283
308 32151 30031
309 31096 62818
310 44063 96992
311 28931 22072
312 86287 69355
313 785 42738
314 50830 94840
315 63255 39576
316 65721 77626
317 10241 86099
318 59882 83891
319 66718 103230
320 46290 83208
321 45278 85511
322 12849 77052
323 81772 88918
324 78574 35646
325 25342 54824
326 2912 74159
327 16249 75708
328 28038 69000
329 5406 47287
330 18551 67442
331 9490 43154
332 4518 15258
333 88712 75642
334 19977 68365
335 77354 50098
336 58890 80637
337 16785 47297
338 38642 16947
339 4221 69072
340 18105 67945
341 58694 67237
342 5004 39941
343 45166 45774
344 44941 89807
345 43519 99550
346 101189 11963
347 9962 74963
348 -316 64278
349 10179 19593
350 23243 62273
351 42732 75260
352 33272 17054
353 18831 58985
354 71471 99288
355 26619 33743
356 55508 40275
357 33462 49499
358 72779 48178
359 58558 48135
360 37265 68746
361 9803 82974
362 6266 75669
363 14406 14343
364 34801 14524
365 14217 91079
366 34222 60311
367 17123 5550
368 47700 96099
369 26702 98280
370 53779 81819
371 36984 61217
372 3391 65747
373 96776 85116
374 9690 50801
375 7955 78545
376 44563 98029
377 12866 65107
378 58572 35913
379 64158 84852
380 43196 18667
381 14296 92424
382 1021 79852
383 25648 68283
384 82885 59344
385 18641 38492
386 70464 73586
387 6944 92120
388 80367 43941
389 27750 47478
390 42925 104104
391 37337 59249
392 21860 52889
393 41284 87622
394 53941 61185
395 27971 90376
396 61796 91689
397 50219 53251
398 22165 52583
399 25440 64386
400 14347 80483
401 6250 75419
402 995 83137
403 17370 26683
404 20250 43301
405 35513 71868
406 11899 89278
407 40104 90384
408 30563 14598
409 44764 88532
410 18433 96837
411 42263 73361
412 25865 62702
413 13349 25562
414 23553 46122
415 36778 41175
416 56010 85669
417 41365 94497
418 71975 76726
419 23468 92364
420 58578 24581
421 71768 62274
422 37335 27297
423 20896 50810
424 14444 41399
425 15127 87588
426 81418 49534
427 13040 81357
428 2886 72898
429 28571 86943
430 6716 68546
431 24148 92032
432 27989 88889
433 46657 79689
434 6435 77033
435 49714 96169
436 2007 98790
437 19495 83216
438 35368 84396
439 23515 46123
440 25077 21430
441 51098 70782
442 29349 88863
443 16370 87817
444 18190 88205
445 6387 89903
446 12389 75935
447 16625 81116
448 7461 95498
449 29539 92472
450 48812 92225
451 91049 71114
452 21558 60841
453 40420 43569
454 55776 75228
455 31224 73104
456 16836 20360
457 17005 99204
458 -806 75694
459 62396 30372
460 34191 61793
461 53527 78307
462 43870 63530
463 26823 94686
464 -836 43566
465 58159 96499
466 59896 80941
467 71128 46951
468 48334 33529
469 56582 71113
470 17797 87120
471 32252 92839
472 38340 55026
473 45624 59642
474 87321 89360
475 18557 23771
476 34324 46612
477 12182 51758
478 57970 88832
479 66305 59892
480 15730 72677
481 41009 32898
482 62301 76798
483 11200 58004
484 103170 736
485 49663 62172
486 64782 63865
487 29976 29070
488 29933 75763
489 15828 5138
490 9622 55554
491 27626 90684
492 23965 104698
493 44807 39608
494 32653 60066
495 75303 93008
496 13098 83592
497 6111 48814
498 92462 66950
499 54879 52939
500 9284 42156
501 24165 68576
502 32839 59943
503 17308 71250
504 9824 74589
505 59621 24768
506 11955 45948
507 80987 53949
508 20227 62629
509 29666 35661
510 63468 65254
511 21495 51521
512 50872 97503
513 49387 55039
514 47362 74619
515 -3410 37286
516 58945 60107
517 44177 101287
518 1534 72313
519 42734 -4533
520 60978 42145
521 92691 33077
522 15837 99183
523 35653 46972
524 32681 70582
525 16573 64757
526 37471 42851
527 23187 69805
528 -5197 47276
529 87587 82490
530 33432 43404
531 47614 84256
532 3497 60316
533 48517 101832
534 36174 60697
535 12845 46401
536 28934 48246
537 48765 95662
538 27064 75384
539 58860 67170
540 41706 93528
541 39411 75591
542 52626 105401
543 12820 51374
544 20704 44331
545 73228 100218
546 20406 45199
547 5254 83663
548 -4276 78487
549 33056 90198
550 18653 36066
551 19160 74750
552 12803 79345
553 31049 66159
554 70789 48271
555 2242 83413
556 53772 37217
557 7148 77523
558 9243 80530
559 44718 64280
560 43641 101892
561 14078 81712
562 34848 81908
563 49805 84719
564 44604 87656
565 43570 83014
566 11935 54402
567 40553 43078
568 57860 88669
569 5735 92345
570 39225 102154
571 7829 89667
572 41469 68351
573 3974 17647
574 32898 7665
575 37752 65048
576 58435 82713
577 38358 65421
578 49106 53413
579 25671 77757
580 73503 82252
581 65211 98899
582 65586 20156
583 54002 74102
584 70438 64474
585 56924 93526
586 3611 91929
587 41952 30039
588 25257 68425
589 11630 14369
590 10700 59551
591 89658 38595
592 26552 64943
593 80852 43381
594 10815 100557
595 59602 43555
596 63600 55602
597 40190 68791
598 41424 59781
599 66921 21398
600 27687 66395
601 22712 70915
602 25292 69043
603 23650 27705
604 32867 45940
605 33222 73800
606 48918 68151
607 68042 48838
608 1054 71879
609 12090 86081
610 68334 47686
611 21455 98960
612 27859 98910
613 27771 43239
614 26739 93427
615 35122 85174
616 -5321 84981
617 13735 41178
618 54133 72501
619 43274 95799
620 23911 51392
621 57822 98123
622 50077 48173
623 60850 98838
624 58421 53470
625 50180 94557
626 61017 56960
627 32736 21319
628 95086 17033
629 5833 74459
630 9071 2926
631 16611 67583
632 24673 99954
633 48858 71364
634 19928 51572
635 57214 35780
636 22310 80305
637 42483 90744
638 7015 89118
639 27228 89828
640 -2761 75776
641 31290 64567
642 17892 33168
643 46417 81286
644 30595 15234
645 64232 45999
646 24837 68806
647 1788 13027
648 61102 67572
649 82871 89927
650 37893 79735
651 71677 58529
652 22361 94309
653 5526 51498
654 46760 25221
655 65311 76577
656 31667 39874
657 64673 66042
658 7553 74309
659 21320 87511
660 55388 79708
661 83154 70035
662 21653 17072
663 38784 86396
664 20201 54168
665 33209 47906
666 5462 69098
667 71721 89716
668 -3914 72086
669 57978 59320
670 22520 11209
671 76569 50662
672 58008 77108
673 39962 95292
674 2422 22994
675 11300 12795
676 63818 41860
677 46071 55123
678 361 54256
679 1170 84252
680 35009 47578
681 12480 70855
682 57068 39965
683 9272 16403
684 41413 63991
685 85139 55099
686 91380 84188
687 12181 76815
688 31428 40701
689 26757 46396
690 36698 84408
691 58997 86003
692 17748 58180
693 36778 41121
694 7572 79866
695 3981 59604
696 17355 77619
697 18358 95712
698 22943 80844
699 22506 58681
700 12294 81914
701 24004 38199
702 14683 74596
703 25865 15268
704 9501 58927
705 27104 12264
706 23708 57198
707 31028 41407
708 35248 101143
709 -8004 50232
710 28263 29254
711 10270 35204
712 18239 98621
713 19921 95384
714 47758 95073
715 21032 99600
716 46530 65814
717 50296 43567
718 1841 69823
719 7131 88021
720 2506 88074
721 30155 56957
722 73150 9020
723 -2861 9061
724 20566 41856
725 36192 78333
726 94327 87635
727 17040 82751
728 66885 73499
729 8192 81511
730 34176 63027
731 25334 75159
732 2218 41965
733 43813 61119
734 23375 65967
735 11058 68642
736 19285 68009
737 1599 96507
738 62241 94212
739 34242 94105
740 14064 64572
741 83690 80275
742 8245 20093
743 78095 89231
744 48767 59251
745 68774 76064
746 73381 28892
747 45647 85088
748 6174 52452
749 27651 42404
750 4651 58463
751 12885 102617
752 60343 28470
753 36770 98432
754 19232 103701
755 47170 93360
756 44930 79368
757 31244 60593
758 22183 78692
759 25600 40213
760 1989 76512
761 5255 60301
762 29466 85232
763 56889 62080
764 36815 94492
765 25296 59283
766 37113 62260
767 33602 98399
768 65418 49503
769 21587 89162
770 56067 80500
771 7294 50351
772 23072 37039
773 16996 61566
774 29755 83195
775 49699 91240
776 68423 78222
777 17415 93944
778 60792 14682
779 32700 50959
780 43060 70117
781 12075 81016
782 65580 36749
783 52346 77033
784 37873 40570
785 13499 52740
786 59133 31984
787 31637 95062
788 36443 32934
789 30470 62485
790 28672 76133
791 32789 42971
792 52646 64670
793 4264 80566
794 52360 61237
795 7154 36655
796 41354 87970
797 20448 82396
798 17769 38960
799 49569 57603
800 10284 74178
801 56734 79297
802 67811 84289
803 52552 87963
804 5334 84962
805 30830 62652
806 18075 46511
807 38951 70873
808 34641 72258
809 34534 99360
810 41486 58975
811 56556 68872
812 22706 45229
813 6206 5012
814 76587 87279
815 46036 90833
816 2312 82979
817 58202 86652
818 72649 101540
819 83544 82976
820 61868 22081
821 81837 103055
822 64329 36179
823 38041 18271
824 58531 86042
825 29305 29303
826 15861 70399
827 50388 83060
828 7218 100197
829 50441 40587
830 21326 32171
831 175 80420
832 65306 34865
833 56107 78612
834 24045 81887
835 35872 24815
836 85777 38558
837 10323 21739
838 81646 76677
839 79314 44800
840 31584 64301
841 39876 79707
842 10700 47023
843 64945 50491
844 55393 48342
845 47940 38688
846 74668 96441
847 20755 62897
848 68631 70422
849 44720 44193
850 6594 56355
851 75402 47907
852 60365 92990
853 77696 57814
854 28002 34844
855 79582 83626
856 40545 69172
857 52252 92448
858 42724 76470
859 19963 47166
860 31121 97270
861 5747 74821
862 44501 87972
863 40055 42043
864 9124 39643
865 74003 81431
866 49731 22352
867 44180 96015
868 80139 69756
869 4133 101900
870 27485 35270
871 47205 37947
872 21762 100791
873 36251 78418
874 46197 30849
875 37736 90034
876 56644 42801
877 33934 56351
878 45876 92342
879 32848 69893
880 18988 64287
881 50682 79017
882 15995 15614
883 47853 96969
884 30675 25813
885 85213 59430
886 35065 89460
887 28016 73509
888 56842 75688
889 28107 84905
890 80837 86517
891 -611 83415
892 42959 60414
893 11482 84301
894 75890 101159
895 35116 66054
896 58517 76784
897 56634 99362
898 23263 52437
899 9159 22859
900 22226 25652
901 69296 71014
902 23246 68803
903 24103 32455
904 27037 70906
905 64737 74420
906 554 83718
907 54721 44114
908 68688 63524
909 28710 52167
910 8625 48289
911 38665 70192
912 58327 98584
913 32187 57477
914 35732 53969
915 8740 89139
916 22740 30694
917 18827 86958
918 36240 41981
919 30517 95463
920 32255 80901
921 80892 52984
922 51989 66704
923 28752 47579
924 47004 55439
925 20708 67741
926 6055 58508
927 64650 47509
928 24646 68251
929 93054 96611
930 32336 58154
931 60598 29327
932 66392 88889
933 79509 49395
934 18360 89920
935 43769 17136
936 50451 35507
937 13387 61207
938 71917 82741
939 21224 61932
940 6304 65135
941 49431 81127
942 75450 58646
943 67078 59647
944 18899 29450
945 9173 76133
946 47935 60399
947 15908 70190
948 48102 84960
949 6099 80552
950 16801 43864
951 18894 80144
952 83906 40264
953 53345 96667
954 8100 89533
955 27563 86253
956 8402 87270
957 26112 49205
958 29849 60958
959 13351 45487
960 56070 30747
961 31843 98642
962 45203 109487
963 70205 70006
964 12141 26732
965 57656 69793
966 27018 64366
967 3796 64647
968 69448 49044
969 52439 66241
970 -611 93385
971 20628 65619
972 23376 67498
973 6509 53471
974 12291 95999
975 28488 92214
976 67295 67917
977 39660 71053
978 72518 61480
979 47490 42437
980 91785 8842
981 51474 82356
982 25150 49466
983 10353 83727
984 86186 103322
985 62640 94454
986 19047 37780
987 50112 69272
988 55859 65824
989 -3398 104207
990 40482 46415
991 20019 49908
992 7220 76490
993 62516 94309
EOF
