NAME : lhk
TYPE : TSP
DIMENSION : 153
EDGE_WEIGHT_TYPE : EUC_2D
NODE_COORD_SECTION
1 80000 20000
2 86268 17591
3 82422 33001
4 76592 48550
5 82618 61476
6 87396 66271
7 91241 72922
8 82618 61476
9 80599 67883
10 67754 81483
11 68278 80275
12 86001 82328
13 83843 87299
14 80809 87988
15 78871 87812
16 65191 85403
17 79826 87984
18 71671 86601
19 66608 90867
20 66476 85520
21 66387 84758
22 71091 84301
23 62578 60279
24 61977 63391
25 60609 61971
26 67106 46834
27 61044 53615
28 78522 68721
29 58264 64266
30 51319 73597
31 52281 78869
32 51315 74245
33 45661 89146
34 41565 62604
35 43995 63385
36 61275 55517
37 47532 62566
38 58479 45757
39 51071 34746
40 57700 41462
41 82839 80530
42 86001 82328
43 52366 88048
44 61262 81200
45 52366 88048
46 52122 88069
47 51473 88514
48 30532 75341
49 23507 85076
50 10684 69850
51 9728 70916
52 10322 85228
53 21356 87981
54 20712 87260
55 36604 87922
56 48181 90297
57 36299 89928
58 35946 88576
59 34040 90934
60 23830 89646
61 29483 68650
62 28109 70149
63 21478 88297
64 30769 68733
65 30195 87855
66 20968 86976
67 19136 89299
68 11269 86840
69 11942 90288
70 11050 90840
71 9874 75043
72 11869 85702
73 10909 87345
74 10629 71882
75 11765 87809
76 10322 85228
77 10684 69850
78 10762 69950
79 11737 69132
80 10684 69850
81 25232 66157
82 33367 70483
83 33337 70380
84 30794 51025
85 34468 56359
86 37059 60581
87 32467 63100
88 37029 64441
89 43353 63016
90 32178 63328
91 33578 58573
92 39956 59183
93 41979 58864
94 30037 49708
95 42780 63077
96 34077 52445
97 29726 46304
98 29540 49857
99 38264 48639
100 23521 46396
101 33673 41456
102 34552 41746
103 31311 35940
104 52637 38701
105 46917 36900
106 53726 38617
107 51387 38406
108 52327 40315
109 53443 39911
110 56486 38558
111 57740 42612
112 43750 40303
113 35492 21261
114 36802 16413
115 27394 20279
116 42955 18300
117 28672 20741
118 12840 17983
119 13047 15085
120 12325 15302
121 13272 15166
122 13263 32141
123 8886 26127
124 10972 36099
125 14981 41299
126 16020 36797
127 15082 31701
128 11592 25057
129 11688 26248
130 23521 46396
131 11352 34667
132 11564 34266
133 11592 25057
134 11051 24395
135 13056 25045
136 31311 35940
137 28971 40347
138 30804 50336
139 32178 63328
140 31311 35940
141 9724 49204
142 16371 47588
143 13691 49077
144 13249 48941
145 11811 49771
146 9724 49204
147 11257 35513
148 11050 36235
149 11325 36877
150 12858 40374
151 61535 17831
152 59985 19446
153 66320 15615
EOF
