NAME : lhk
TYPE : TSP
DIMENSION : 207
EDGE_WEIGHT_TYPE : EUC_2D
NODE_COORD_SECTION
1 80000 20000
2 82691 16065
3 84347 21036
4 87544 18622
5 87746 20459
6 81106 43636
7 77182 53902
8 70320 52349
9 72435 48533
10 76996 45890
11 70235 50915
12 65491 56515
13 65081 56063
14 46165 57108
15 72104 52996
16 65354 57677
17 48389 53367
18 40195 67746
19 22623 65227
20 10777 44533
21 10761 46484
22 21527 62578
23 19417 60551
24 16717 58585
25 16460 57751
26 17912 58306
27 14543 58295
28 10697 45534
29 11424 36459
30 11791 31883
31 79143 51161
32 77906 59484
33 79643 58350
34 64567 64339
35 57538 59506
36 72900 56022
37 54209 68338
38 64996 60708
39 73644 58851
40 64466 65523
41 63665 61901
42 49190 71918
43 64040 68807
44 64194 65959
45 54982 64116
46 24135 64160
47 34859 67783
48 36011 66077
49 22615 63746
50 20029 61287
51 22650 69923
52 19620 60934
53 12011 78579
54 22620 64797
55 12240 68448
56 12271 64682
57 11354 55340
58 12440 58015
59 12214 68453
60 12087 62527
61 10723 45214
62 12268 68443
63 10822 47401
64 7558 55093
65 11926 73399
66 11157 71057
67 12083 69698
68 11689 63693
69 9230 71303
70 7436 74993
71 9813 74998
72 10121 79302
73 15685 82673
74 11109 86526
75 10713 89585
76 10401 89896
77 11455 91279
78 19011 90138
79 17424 76292
80 13424 90205
81 22582 90095
82 20079 91550
83 23943 90079
84 24021 89870
85 11912 80332
86 11737 83322
87 13552 83281
88 21920 83034
89 17653 79399
90 21856 76540
91 17859 76357
92 30957 79786
93 32423 69545
94 19944 80238
95 20623 76887
96 21392 76292
97 31852 69475
98 16032 58674
99 16387 34555
100 13010 34623
101 11962 33976
102 11645 16967
103 11952 17317
104 11445 15820
105 12124 19535
106 13840 22284
107 23836 20864
108 37281 17168
109 35439 15584
110 24914 20565
111 32898 18342
112 34796 36706
113 43879 35862
114 38264 31897
115 41176 33196
116 25262 20469
117 36961 25987
118 24550 20666
119 33563 41081
120 32527 37942
121 27796 38475
122 20297 51780
123 31928 51649
124 34700 36586
125 37337 48998
126 30677 43614
127 25137 46389
128 30046 49896
129 45641 53497
130 42219 79247
131 46055 76885
132 50486 85954
133 48987 72780
134 57532 83983
135 50528 77088
136 52374 73900
137 57427 83841
138 56849 80383
139 58617 78752
140 65613 78853
141 61358 77825
142 68944 85676
143 71571 88794
144 71242 90001
145 78674 88141
146 76710 88321
147 81600 88012
148 84831 87306
149 86199 85076
150 65289 67568
151 71036 74968
152 85788 84971
153 86727 79920
154 88252 67030
155 58848 73065
156 56516 90411
157 57380 90444
158 35287 90155
159 55324 87872
160 53657 89778
161 47789 90306
162 47821 90083
163 53839 86420
164 51869 90355
165 56082 88989
166 56980 89255
167 40613 73487
168 49909 82577
169 42865 75690
170 40540 90218
171 47317 71321
172 41057 73922
173 43558 70872
174 17710 78136
175 36101 69992
176 37585 70173
177 40078 87363
178 40654 70547
179 39954 71530
180 36567 84446
181 40605 84560
182 42444 86986
183 41419 88477
184 40682 88409
185 31393 89970
186 34329 89627
187 35943 88670
188 27664 91131
189 34377 82627
190 33620 89710
191 27569 91010
192 27630 91108
193 20927 79511
194 34366 58544
195 36099 48204
196 34617 53197
197 36988 56116
198 37650 56737
199 35699 39265
200 46969 43721
201 61421 33600
202 48440 37487
203 57355 39293
204 55561 38308
205 43724 29961
206 62009 26525
207 64187 15978
EOF
