NAME : lhk
TYPE : TSP
DIMENSION : 993
EDGE_WEIGHT_TYPE : EUC_2D
NODE_COORD_SECTION
1 80000 20000
2 15703 89459
3 32504 86821
4 7737 76234
5 -248 21835
6 46837 93211
7 62559 27673
8 37898 40635
9 19368 20357
10 60203 74248
11 4564 46976
12 37509 36891
13 57562 84187
14 23381 93422
15 -3673 71215
16 17200 99007
17 21121 79871
18 12777 86538
19 70013 89122
20 49945 35809
21 26290 106839
22 35754 67555
23 43919 94221
24 50201 107945
25 65351 18157
26 94261 77808
27 38745 20891
28 53867 28963
29 24182 93404
30 76476 51093
31 40544 58060
32 5145 87820
33 19860 32648
34 90453 35864
35 22280 51552
36 61902 64488
37 24943 101667
38 33400 36585
39 27354 32604
40 9714 95210
41 53473 86612
42 22284 80111
43 66266 91282
44 55521 39128
45 22391 93088
46 68923 43361
47 16818 42472
48 12895 53592
49 7289 83029
50 25249 50605
51 24993 95415
52 70597 77349
53 62206 91271
54 43650 97346
55 49447 65336
56 55108 29222
57 48958 67383
58 12991 52285
59 31048 86312
60 28366 63996
61 37644 73025
62 2088 15028
63 53793 95042
64 51318 40077
65 28407 22957
66 10562 30365
67 51321 39895
68 74045 68784
69 65919 53417
70 47555 46456
71 62772 53878
72 80856 75021
73 29843 90798
74 27044 92026
75 13713 28673
76 -7030 85859
77 30797 78130
78 -8730 68509
79 26003 51356
80 30653 49675
81 37034 68680
82 18587 61975
83 40274 82740
84 72166 79291
85 58115 60862
86 65442 60685
87 2917 27772
88 5175 42703
89 24762 73548
90 33873 57699
91 -174 80257
92 48845 79995
93 23919 92757
94 15090 95352
95 52304 85000
96 19812 83450
97 25589 95003
98 15129 71468
99 92194 31560
100 27421 75587
101 -1441 55182
102 43352 55215
103 69896 46856
104 63825 3518
105 37376 67641
106 39480 106112
107 1425 94798
108 99039 62082
109 3482 86209
110 62671 65490
111 64244 66410
112 31254 24021
113 57103 71266
114 17036 72455
115 10980 74814
116 11192 99447
117 5174 57770
118 70001 43056
119 67757 91858
120 14290 66642
121 27442 80946
122 23728 35013
123 6179 55644
124 10586 44190
125 28280 75965
126 17822 36624
127 49974 78221
128 40625 50344
129 -109 54265
130 40913 93384
131 18351 65945
132 19220 61343
133 16643 62836
134 9512 25696
135 41692 76825
136 74728 97753
137 82279 61949
138 33268 65306
139 12082 103304
140 30684 102335
141 53270 83034
142 31663 86109
143 25422 55492
144 74939 45848
145 42388 73743
146 65143 93402
147 34044 80408
148 37917 61338
149 16661 40784
150 69322 102157
151 41027 89933
152 18799 37080
153 74918 76094
154 5030 85071
155 10756 45024
156 35614 51385
157 44817 101650
158 9539 51977
159 67957 84851
160 77490 85990
161 35253 30639
162 53049 59444
163 16540 68819
164 42098 72114
165 50575 25742
166 56558 95874
167 8029 55742
168 29798 77439
169 17850 78007
170 11966 90991
171 99430 52511
172 45650 77312
173 38958 86517
174 63433 62645
175 15990 53209
176 38208 58784
177 65568 11536
178 61997 94149
179 12779 78377
180 62905 84031
181 39392 47817
182 47377 93608
183 22831 44047
184 18839 95544
185 18711 79905
186 63554 106265
187 53368 54756
188 872 22382
189 54523 56342
190 34721 81415
191 62216 52560
192 36802 34468
193 12528 63952
194 44729 82389
195 53425 46114
196 82196 39725
197 9656 55472
198 55494 39230
199 87400 51850
200 3207 88043
201 7746 94077
202 65156 64867
203 54692 83309
204 12214 85831
205 86750 74361
206 21914 36922
207 39478 87444
208 -6120 68027
209 50139 63869
210 44886 38423
211 39013 56616
212 12606 12906
213 7210 37833
214 -5403 94174
215 6199 58334
216 38333 85694
217 44399 57673
218 52515 45378
219 9028 47921
220 6676 66084
221 20099 73540
222 25163 30514
223 4967 38271
224 34215 76758
225 -4746 81014
226 41424 69408
227 28306 71623
228 22268 106018
229 8749 37525
230 55339 85016
231 36749 87365
232 29159 89185
233 70202 44001
234 22889 54956
235 2280 62737
236 46439 60395
237 10928 90810
238 36729 55156
239 54256 65271
240 49145 98618
241 10906 83797
242 29795 79788
243 87471 46837
244 85540 14092
245 28080 86034
246 45028 86871
247 27590 18952
248 12095 92899
249 47866 74701
250 29878 88954
251 40167 37120
252 66145 89332
253 35914 80213
254 28088 82145
255 26736 19002
256 4816 66963
257 33653 82327
258 36359 44682
259 4317 24548
260 55463 94230
261 80266 14367
262 32914 31268
263 48840 57883
264 1415 86035
265 41963 50525
266 38476 99006
267 27212 73237
268 26603 57454
269 20728 30960
270 32052 51474
271 31637 78102
272 32086 87542
273 6245 70322
274 63627 89988
275 71685 42969
276 16462 74132
277 48235 47012
278 5673 68641
279 29309 23005
280 17992 54567
281 43481 76320
282 50789 53579
283 44408 58546
284 8790 38858
285 26312 20048
286 65884 99818
287 59915 60827
288 42828 12050
289 14347 92307
290 49328 23072
291 68413 72407
292 43998 66375
293 43753 86121
294 65078 62401
295 50569 70307
296 70104 28625
297 21403 75481
298 62656 85965
299 1297 75139
300 12052 22558
301 -1479 87650
302 -1351 84939
303 32321 44777
304 3867 59772
305 20910 93668
306 38732 91377
307 23323 96525
308 28667 19365
309 33444 61011
310 37918 98374
311 33338 17095
312 102944 73421
313 11178 36471
314 52017 90258
315 66191 47265
316 61798 77278
317 19698 83815
318 61555 87808
319 63951 95476
320 46339 85992
321 58936 85680
322 11310 74047
323 89699 92977
324 64235 37909
325 30795 47391
326 7254 81005
327 18886 75587
328 27366 71352
329 981 39984
330 16106 54538
331 3310 40596
332 10806 15308
333 81509 70886
334 25376 83542
335 75632 59663
336 55021 81359
337 4979 55591
338 41795 19187
339 20009 66636
340 25292 77218
341 57186 62058
342 5257 53151
343 43858 42695
344 48713 98760
345 47366 99788
346 88686 13586
347 20064 70742
348 -8348 65726
349 11643 4291
350 25250 63956
351 34950 79060
352 34008 10867
353 17352 46547
354 76512 99388
355 24807 27141
356 56136 36013
357 40674 45938
358 62845 45521
359 55575 30097
360 30744 70025
361 18422 81652
362 14999 77113
363 -774 16412
364 39652 12413
365 4909 85418
366 29940 63149
367 19640 21023
368 62343 94081
369 11481 88443
370 64434 89923
371 34134 57027
372 2782 71489
373 99641 79491
374 16124 42102
375 7258 71223
376 35057 103264
377 5683 61507
378 62601 41790
379 72121 76621
380 33258 29805
381 -1835 106354
382 7052 72069
383 25377 64040
384 68738 71431
385 13910 41438
386 75634 69364
387 11715 88309
388 79303 52544
389 21335 45393
390 41867 96495
391 27699 62795
392 24040 50403
393 39822 100431
394 69632 67174
395 41083 95704
396 57486 88135
397 68744 50900
398 18869 42348
399 26523 71835
400 23368 80642
401 6494 71150
402 5264 87880
403 14973 21845
404 21748 47093
405 46864 76592
406 149 96979
407 46681 85893
408 35634 10740
409 53947 100453
410 28236 106386
411 41948 59594
412 29672 63799
413 6247 16502
414 40941 44675
415 30383 41925
416 49981 79567
417 46204 95208
418 82416 78037
419 18438 91435
420 55401 26352
421 73275 49161
422 43203 34771
423 17616 56319
424 26047 44372
425 22674 88969
426 78047 38686
427 -1249 89042
428 7350 66898
429 35183 95921
430 18872 82621
431 36524 97206
432 21931 85550
433 50982 71027
434 2879 81713
435 57983 99062
436 9905 98790
437 1522 73866
438 45858 80520
439 25623 46369
440 19066 11516
441 47580 65745
442 22303 108841
443 16607 96464
444 13660 72014
445 5557 82209
446 837 80361
447 13480 77959
448 7272 96063
449 28165 91042
450 44748 88208
451 94005 67543
452 18775 54421
453 39700 39060
454 51568 66450
455 22258 78829
456 -5956 24540
457 29345 93597
458 8047 66100
459 50793 35522
460 43867 61219
461 61082 75820
462 41275 54485
463 18882 94558
464 1898 46720
465 66921 98058
466 73284 83185
467 71385 46267
468 37918 33685
469 46330 69451
470 13384 78472
471 34652 92626
472 44387 63680
473 45923 52141
474 91193 93278
475 19721 12159
476 25226 44465
477 20281 34065
478 63619 89225
479 62502 62003
480 25174 74631
481 37382 38806
482 76632 75426
483 13085 55169
484 96588 19084
485 45641 65771
486 51478 57734
487 27998 42033
488 18215 79610
489 17076 7088
490 803 39156
491 24935 84902
492 21600 100725
493 40720 46417
494 34100 50966
495 84996 98326
496 6852 83580
497 11743 39454
498 95472 57140
499 53522 49436
500 -1228 39487
501 13685 63974
502 28662 70258
503 14783 71419
504 8963 68950
505 67038 19554
506 10313 50389
507 85929 59985
508 19733 64731
509 29211 43827
510 61623 73844
511 19574 65204
512 48718 108803
513 48029 49914
514 45890 80378
515 5781 32943
516 57287 74907
517 50612 93677
518 359 78182
519 38963 -815
520 52498 56346
521 94674 34143
522 20055 93830
523 41976 42878
524 40800 67255
525 24499 60744
526 21803 44990
527 31695 73786
528 6648 51542
529 81515 63580
530 31901 30962
531 37723 77020
532 2148 61061
533 43450 95727
534 46911 58834
535 14403 48308
536 29507 41285
537 48635 93694
538 15491 78263
539 53019 57298
540 35801 89470
541 42864 77218
542 50707 100504
543 8770 49889
544 22780 53162
545 70189 95836
546 27148 55621
547 4832 86459
548 -832 83985
549 30314 95451
550 35680 29381
551 14156 83038
552 15683 78021
553 12833 71430
554 71587 50521
555 631 81692
556 49144 27008
557 6497 76029
558 5764 94800
559 42762 58172
560 46269 97402
561 11236 79924
562 38685 79404
563 48106 89625
564 44143 71524
565 44082 78579
566 7002 56695
567 35057 38333
568 65582 88560
569 10046 92151
570 34527 102885
571 13603 76789
572 34954 63256
573 9570 29127
574 48027 12573
575 31596 72352
576 53321 81880
577 37939 66625
578 52514 59146
579 21860 81736
580 70995 75123
581 75178 100103
582 65235 15219
583 53719 73647
584 75695 54834
585 57318 99836
586 -5542 100916
587 38133 34022
588 25249 56429
589 20862 10561
590 10828 59666
591 94689 40351
592 32140 67672
593 69343 50576
594 22393 104444
595 52880 41891
596 71994 68526
597 39213 60228
598 36163 57453
599 69223 10494
600 28994 57447
601 23171 63667
602 16453 59163
603 15906 32414
604 25356 46202
605 26064 66085
606 57710 73787
607 64153 44173
608 7562 73545
609 23569 86095
610 77153 47436
611 34911 94435
612 29852 104489
613 24085 43197
614 39214 107924
615 46024 86829
616 4479 80691
617 17774 36333
618 55115 66831
619 49963 87882
620 33407 49533
621 60964 105227
622 45012 56868
623 69087 81185
624 51478 60904
625 50420 95783
626 46717 58945
627 31520 17134
628 93606 20568
629 1870 87552
630 6319 11267
631 16517 72839
632 37026 94026
633 52407 84521
634 24398 57450
635 59742 38848
636 27256 62558
637 55384 84399
638 8832 90905
639 34284 81661
640 12390 72519
641 25448 62978
642 22840 14622
643 51651 76290
644 25248 18027
645 59847 44399
646 26042 61059
647 6448 22311
648 58908 72457
649 75563 84633
650 44257 78054
651 70323 53622
652 26957 101582
653 5174 43996
654 41223 20852
655 63284 78607
656 30104 33373
657 70037 58532
658 12475 64158
659 25532 68848
660 41550 77881
661 103355 71820
662 16364 24047
663 34177 76070
664 18551 44737
665 37915 42343
666 -1743 62114
667 70615 91349
668 4590 66370
669 49697 69639
670 28858 9730
671 69782 43467
672 66308 78660
673 42276 92561
674 10312 22597
675 13302 13874
676 64371 41380
677 42520 72022
678 13046 53466
679 8933 98830
680 31438 31367
681 11258 76053
682 52924 32662
683 5801 15465
684 42070 76847
685 96763 58398
686 102320 83720
687 12864 65116
688 32896 38258
689 27316 48260
690 30160 67966
691 61732 89382
692 14272 58264
693 35499 41956
694 8048 94281
695 8280 71645
696 24693 78434
697 18084 92804
698 17553 84362
699 7981 52471
700 12285 84315
701 9464 44935
702 14200 79209
703 22636 20646
704 17324 67083
705 36555 14375
706 16904 58155
707 32313 35888
708 31864 91791
709 -3099 49149
710 33718 23487
711 14404 28567
712 12126 90017
713 13710 88051
714 49450 92207
715 16496 93914
716 41352 71378
717 40116 38617
718 4422 67362
719 7348 86974
720 6636 82997
721 22260 63119
722 72139 8955
723 337 13924
724 17532 49124
725 35223 83328
726 70601 89940
727 21765 71463
728 56364 72274
729 8946 72909
730 22378 62108
731 20431 77369
732 8998 42837
733 41064 69755
734 24868 62795
735 632 61455
736 25651 56719
737 2831 93331
738 54611 102861
739 34432 101156
740 2575 64470
741 89754 79194
742 11814 18070
743 77227 86054
744 56049 61946
745 62064 66868
746 78900 34946
747 41397 97259
748 9339 69656
749 34067 42852
750 3913 54178
751 10621 99688
752 63807 32457
753 33503 98805
754 19303 94971
755 48712 90399
756 53816 72733
757 30805 55111
758 33866 76204
759 14829 57277
760 7602 75504
761 16319 59393
762 24694 92287
763 60287 68727
764 40549 82407
765 14898 56334
766 39302 62412
767 33783 104675
768 67138 57160
769 16570 93994
770 53463 73474
771 5678 48057
772 17847 44318
773 18222 65744
774 30612 85226
775 51534 94178
776 69213 78301
777 14389 101868
778 59012 12907
779 40170 54425
780 47897 74691
781 11131 73836
782 59698 32117
783 52565 71342
784 32910 53158
785 11814 72423
786 48512 40060
787 19961 94974
788 32913 37371
789 27745 62911
790 32997 82704
791 40895 35604
792 56713 58632
793 10577 78481
794 52246 61916
795 14183 28539
796 27236 89710
797 15766 76435
798 21123 45541
799 45781 68034
800 13033 61480
801 58277 77554
802 63573 77223
803 44195 75048
804 3611 86880
805 40374 60964
806 11919 55927
807 32249 80886
808 35625 85997
809 40684 94639
810 35935 61259
811 68897 61363
812 39455 38454
813 1713 5862
814 69461 87909
815 48577 95028
816 9586 88684
817 54094 97466
818 59326 102121
819 79510 71192
820 60523 23428
821 75205 93543
822 63599 28738
823 39935 28214
824 66907 86062
825 23015 27889
826 21114 83180
827 47283 82491
828 -2517 92317
829 66352 33872
830 22968 33673
831 -5640 80353
832 66440 26727
833 59028 76125
834 25809 91865
835 35499 39226
836 87888 48167
837 26634 30916
838 62719 67461
839 83753 52714
840 26673 62263
841 28196 85891
842 16955 56729
843 64685 50257
844 52347 53390
845 46173 44764
846 65691 80614
847 18789 62755
848 63909 77946
849 43521 46432
850 8232 58929
851 61891 54964
852 50467 91048
853 70337 60222
854 31769 29436
855 72528 98652
856 50480 68638
857 54587 97621
858 52360 72019
859 25296 54008
860 32741 86092
861 3503 79704
862 54215 80443
863 31032 39498
864 12027 37219
865 75901 83122
866 46271 39213
867 45654 91397
868 71120 70050
869 2140 91851
870 27828 32024
871 48169 42871
872 16414 99893
873 31005 68018
874 45041 33055
875 43340 95685
876 59641 54499
877 34117 48597
878 39178 95836
879 34155 67487
880 11 70227
881 53391 81584
882 17504 13728
883 50028 111319
884 35899 20555
885 84021 57915
886 23886 88843
887 18998 78907
888 60915 80980
889 22024 65878
890 91157 90513
891 -5163 71369
892 29333 55639
893 8830 83361
894 80092 103777
895 44361 69587
896 50300 86807
897 54413 96336
898 24568 56127
899 -3694 32967
900 18865 23420
901 70539 77458
902 20419 52937
903 14784 16744
904 27309 66414
905 62851 61704
906 6157 83449
907 49898 44106
908 51211 55312
909 28829 44571
910 10024 42103
911 35569 64000
912 54878 101867
913 42767 68719
914 27359 55235
915 12502 88186
916 25630 32744
917 15627 89638
918 37958 32699
919 30688 88346
920 30717 80856
921 78934 50413
922 59634 77084
923 37144 54840
924 49507 62187
925 20841 67870
926 9500 59343
927 64544 50729
928 32214 60905
929 85810 102016
930 34857 56116
931 55517 39252
932 61876 81705
933 84156 54065
934 19620 93159
935 41540 20950
936 45826 35687
937 10327 51386
938 73645 83577
939 21198 55768
940 2588 66256
941 48483 85231
942 71284 57290
943 71950 53925
944 21383 29987
945 8007 87009
946 56055 47587
947 19252 79730
948 50200 94036
949 1357 67660
950 22669 40761
951 10681 73895
952 86602 51124
953 51762 96622
954 3834 90556
955 31397 76996
956 3715 83139
957 19993 51512
958 27976 64910
959 6081 28495
960 71270 17563
961 25462 98936
962 45487 110071
963 74691 65878
964 8939 18414
965 49565 54047
966 20048 70248
967 3224 69414
968 77599 51539
969 49828 61243
970 1096 94318
971 170 61724
972 24934 78246
973 13310 55000
974 12469 101952
975 38125 99765
976 70205 74157
977 37028 72110
978 81000 63961
979 55420 50204
980 84561 10737
981 52729 94135
982 25068 59176
983 8783 88870
984 78301 94402
985 59769 90059
986 13932 32427
987 46289 78782
988 65548 81770
989 2947 103608
990 38675 43631
991 11864 42103
992 7160 79437
993 65078 95871
EOF
